LAMMPS (3 Mar 2020)
  using 1 OpenMP thread(s) per MPI task
# ***************** Initialization # basis  ***************

echo	both

units		metal
dimension	3
boundary	p   p   p
atom_style	full
atom_modify	map	hash

# ****************** read data  *****************

read_restart	npt2.restart.2000000
  restoring atom style full from restart
  orthogonal box = (2.12417 2.84297 3.3889) to (50.198 50.9168 49.4168)
  3 by 4 by 2 MPI processor grid
  restoring pair style buck/coul/long from restart
  restoring bond style harmonic from restart
  restoring angle style harmonic from restart
  restoring improper style harmonic from restart
  8973 atoms
  5420 bonds
  5458 angles
  1780 impropers
  4 = max # of 1-2 neighbors
  6 = max # of 1-3 neighbors
  16 = max # of 1-4 neighbors
  20 = max # of special neighbors
  special bonds CPU = 0.00529907 secs
  read_restart CPU = 0.166152 secs

mass	1	6.940000	# Li
mass	2	14.006700	# n3
mass	3	15.999400	# o
mass	4	28.086000 	# si
mass	5	15.999400 	# oz

# *******************  Define a few parameters  **********************

variable    T	equal  773			# melt temperature
variable    T2	equal  373			# cool temperature
variable    T3	equal  573			# cool temperature
variable	Pre	equal	1			# Pressure
variable	DT	equal  0.0005			# timestep    1fs   (Read from the restart file)
variable	T_low	equal  950			# Heat sink
variable	T_high	equal  1050			# Heat source

# *********************  Potential  function setting  *****************

pair_style	buck/coul/long	15.0

pair_coeff	1	1	49.9328		0.342	0.4567
pair_coeff	1	2	270.2317	0.2984	2.2677
pair_coeff	1	3	367.2162	0.2815	2.269
pair_coeff	1	4	396.5310	0.3464	16.9145
pair_coeff	1	5	181.4382	0.3627	3.5001
pair_coeff	2	2	1462.4691	0.2646	11.2599
pair_coeff	2	3	1987.34		0.2513	11.2664
pair_coeff	2	4	2145.9890	0.3017	83.9870
pair_coeff	2	5	981.9270	0.3140	17.3791
pair_coeff	3	3	2700.5838	0.2392	11.2729
pair_coeff	3	4	2916.1710	0.2845	84.0355
pair_coeff	3	5	1334.3345	0.2954	17.3891
pair_coeff	4	4	3148.9684	0.351	626.4545
pair_coeff	4	5	1440.8542	0.3677	129.6298
pair_coeff	5	5	659.2828	0.386	26.8238

kspace_style	pppm	5e-5

bond_style	harmonic
bond_coeff	1	22.80523256	1.2627	#N-O
bond_coeff	2	12.3854274	1.68	#Si-O

angle_style	harmonic
angle_coeff	1	4.561046512	120.0	#O-N-O
angle_coeff	2	4.345764	109.5	#O-Si-O
angle_coeff	3	4.345764	149		#Si-O-Si

improper_style	harmonic
improper_coeff	1	2.606312292	0.0	#O-N-O-O

# *********************  thermo output  ************************

#thermo		1000
#thermo_style	custom	step	temp	lx	ly	lz	vol	pe	ke	etotal

# *********************** Initialization relaxation ***********************
# ***********************   Optimize at  0 K  ***********************
# ***********************  Static equilibrium  **************************

#dump		1	all	custom	1000	dump.mini	id	type	x	y	z
#dump_modify	1	sort	id

#min_style	cg
#minimize	1.0e-5	1.0e-8	1000000	1000000
#undump		1

#  *************************  Set velocity  **********************

reset_timestep	0

#velocity 	all	create	 ${T}  454864	mom	yes	rot	yes	dist	gaussian

fix		npt	all	npt	temp	${T}	${T}	0.1	iso	${Pre}	${Pre}	0.5
fix		npt	all	npt	temp	773	${T}	0.1	iso	${Pre}	${Pre}	0.5
fix		npt	all	npt	temp	773	773	0.1	iso	${Pre}	${Pre}	0.5
fix		npt	all	npt	temp	773	773	0.1	iso	1	${Pre}	0.5
fix		npt	all	npt	temp	773	773	0.1	iso	1	1	0.5
Resetting global fix info from restart file:
  fix style: npt, fix ID: npt

dump		npt	all	custom	500000	npt.dump	id	type	x	y	z
dump_modify	npt	sort	id

thermo_style 	custom	step	temp	lx	ly	lz	vol	press	pe	ke	etotal
thermo		5000

timestep	${DT}
timestep	0.0005

restart	1000000    npt2.restart

run		2000000
PPPM initialization ...
WARNING: System is not charge neutral, net charge = 21.1938 (../kspace.cpp:313)
  using 12-bit tables for long-range coulomb (../kspace.cpp:332)
  G vector (1/distance) = 0.186967
  grid = 20 20 20
  stencil order = 5
  estimated absolute RMS force accuracy = 0.000756246
  estimated relative force accuracy = 5.25184e-05
  using single precision MKL FFT
  3d grid and FFT values/proc = 1950 400
All restart file global fix info was re-assigned
Neighbor list info ...
  update every 1 steps, delay 10 steps, check yes
  max neighbors/atom: 2000, page size: 100000
  master list distance cutoff = 17
  ghost atom cutoff = 17
  binsize = 8.5, bins = 6 6 6
  1 neighbor lists, perpetual/occasional/extra = 1 0 0
  (1) pair buck/coul/long, perpetual
      attributes: half, newton on
      pair build: half/bin/newton
      stencil: half/bin/3d/newton
      bin: standard
Per MPI rank memory allocation (min/avg/max) = 13.28 | 13.63 | 13.66 Mbytes
Step Temp Lx Ly Lz Volume Press PotEng KinEng TotEng 
       0    779.38728    48.073858    48.073858    46.027898    106374.88    857.78262    -3075.274     903.8726   -2171.4014 
    5000    783.06968    47.935984    47.935984    45.895891    105462.27   -175.72516   -3080.5144    908.14316   -2172.3713 
   10000    767.94765    47.984663    47.984663    45.942499    105783.88    111.00174   -3070.8512     890.6058   -2180.2454 
   15000    779.53087    48.047056    48.047056    46.002236    106197.06   -19.267861   -3068.1573    904.03912   -2164.1181 
   20000    776.24344    47.990016    47.990016    45.947625    105819.29   -1754.9883   -3072.7426    900.22661    -2172.516 
   25000     778.6045    48.017959    48.017959    45.974378    106004.25    -498.1576    -3079.805    902.96478   -2176.8402 
   30000    770.72505    48.047034    48.047034    46.002216    106196.92   -1036.6101   -3070.3945    893.82681   -2176.5677 
   35000    773.51327    47.993694    47.993694    45.951146    105843.62    145.94558   -3082.6381    897.06037   -2185.5777 
   40000    783.33405    48.051823    48.051823    46.006801    106228.68    466.15608   -3082.6463    908.44974   -2174.1966 
   45000    760.08096    48.109018    48.109018    46.061562    106608.45   -172.06131   -3065.4621    881.48263   -2183.9795 
   50000    768.01789    47.998236    47.998236    45.955495    105873.68    1411.6441   -3054.1876    890.68727   -2163.5003 
   55000     766.5959    48.150977    48.150977    46.101734    106887.63   -1221.5912   -3054.3126    889.03815   -2165.2744 
   60000    779.38828    48.062279    48.062279    46.016812    106298.04    951.60375   -3073.0208    903.87375    -2169.147 
   65000    771.68131    48.121297    48.121297    46.073318    106690.11   -106.80496   -3058.7237    894.93581   -2163.7879 
   70000     783.7256    48.122777    48.122777    46.074735    106699.95    467.35576   -3068.9427    908.90384   -2160.0388 
   75000    770.11166     48.08975     48.08975    46.043114    106480.41   -874.29407   -3080.6199    893.11545   -2187.5044 
   80000    770.04254    48.019578    48.019578    45.975928    106014.96   -409.40208   -3055.2431    893.03529   -2162.2078 
   85000    782.74112    48.009857    48.009857     45.96662    105950.59   -563.14091    -3072.285    907.76211   -2164.5229 
   90000    775.12827    48.018875    48.018875    45.975255    106010.31    305.08168   -3076.5879    898.93333   -2177.6546 
   95000    776.88499    48.007505    48.007505    45.964369    105935.02    270.13473   -3066.6536    900.97063    -2165.683 
  100000    782.25762    48.170193    48.170193    46.120133    107015.66    853.65666    -3069.101    907.20139   -2161.8996 
  105000    777.73322    47.976623    47.976623    45.934801    105730.72    1089.8606   -3071.7824    901.95434    -2169.828 
  110000    781.66477    48.056893    48.056893    46.011655    106262.31    586.12385   -3067.7143    906.51384   -2161.2005 
  115000    787.44502     48.00108     48.00108    45.958217     105892.5   -519.29346   -3079.1706    913.21733   -2165.9533 
  120000    765.02985      47.9733      47.9733     45.93162    105708.75   -216.59085   -3068.2453    887.22197   -2181.0233 
  125000    768.78287    48.021175    48.021175    45.977457    106025.54    -198.9499   -3082.1827    891.57443   -2190.6083 
  130000    771.90755    48.080031    48.080031    46.033809    106415.87   -353.50787   -3079.1879    895.19819   -2183.9897 
  135000    780.95415    48.043876    48.043876    45.999192    106175.98    -667.6415    -3077.293    905.68973   -2171.6033 
  140000    783.12896    48.018107    48.018107     45.97452    106005.22    1096.1277   -3074.9059     908.2119    -2166.694 
  145000    764.04217    48.145485    48.145485    46.096477    106851.07   -982.06286   -3063.9001    886.07652   -2177.8236 
  150000    770.83725     48.19461     48.19461    46.143511    107178.48   -419.63816   -3056.0848    893.95694   -2162.1278 
  155000    769.14133     48.04366     48.04366    45.998985    106174.55   -1616.4402   -3079.5015    891.99014   -2187.5113 
  160000    774.38494    48.122803    48.122803     46.07476    106700.12    360.79176   -3083.3202    898.07127    -2185.249 
  165000    774.25113    48.125633    48.125633    46.077469    106718.94    47.712489   -3069.2664    897.91608   -2171.3504 
  170000    775.49599    48.098249    48.098249    46.051251    106536.88    837.39246   -3067.0952    899.35978   -2167.7354 
  175000    778.75879    48.169491    48.169491     46.11946    107010.98   -582.06758   -3079.2499    903.14372   -2176.1062 
  180000    776.99072     47.97153     47.97153    45.929925    105697.05   -366.29706   -3083.5088    901.09325   -2182.4156 
  185000    776.92657    48.118427    48.118427     46.07057    106671.02    294.16738   -3068.7857    901.01886   -2167.7668 
  190000    777.15197    48.115318    48.115318    46.067593    106650.34   -64.925539    -3079.434    901.28026   -2178.1537 
  195000    789.62495    48.173697    48.173697    46.123488    107039.01   -52.004735   -3062.8965    915.74544   -2147.1511 
  200000    757.51496     48.03846     48.03846    45.994006    106140.08     -577.036    -3073.379    878.50678   -2194.8722 
  205000    761.41117    48.168053    48.168053    46.118084     107001.4   -99.265058   -3075.0954     883.0253   -2192.0701 
  210000    780.38448    47.982936    47.982936    45.940845    105772.46   -127.61609   -3065.8216    905.02907   -2160.7925 
  215000    777.12449    48.026259    48.026259    45.982325    106059.23    694.83727   -3055.7186    901.24839   -2154.4702 
  220000    772.09383    48.105336    48.105336    46.058036    106583.98   -658.18507   -3075.4335    895.41422   -2180.0193 
  225000     772.7152    48.049241    48.049241    46.004328    106211.55    -244.0615    -3070.148    896.13484   -2174.0131 
  230000    767.62433    48.022124    48.022124    45.978366    106031.83    787.32518   -3085.7351    890.23084   -2195.5042 
  235000    774.22637    48.045097    48.045097    46.000361    106184.07   -1167.8698   -3081.1785    897.88737   -2183.2912 
  240000    760.25395    48.090768    48.090768    46.044088    106487.17   -896.13056   -3049.7995    881.68325   -2168.1162 
  245000    759.57991    48.079323    48.079323     46.03313    106411.16   -919.44483   -3056.7539    880.90155   -2175.8523 
  250000    768.56739    48.043667    48.043667    45.998992    106174.59    498.77251   -3070.6241    891.32452   -2179.2996 
  255000    768.18749    48.077374    48.077374    46.031264    106398.22    264.50095   -3072.2929    890.88395    -2181.409 
  260000    774.71622    48.055887    48.055887    46.010692    106255.63   -2178.7949   -3082.6014    898.45546    -2184.146 
  265000    774.22007    48.115401    48.115401    46.067673    106650.89     1113.463   -3064.3209    897.88007   -2166.4409 
  270000    776.86626    47.972099    47.972099     45.93047    105700.81   -1672.4182   -3056.4517    900.94891   -2155.5027 
  275000    777.48612    48.125681    48.125681    46.077515    106719.27   -888.67458   -3069.3805    901.66778   -2167.7128 
  280000    777.11708    48.127044    48.127044     46.07882    106728.33    51.292109    -3070.973    901.23979   -2169.7332 
  285000    762.59863    48.101255    48.101255    46.054129    106556.86   -612.63897   -3082.7444    884.40243    -2198.342 
  290000    766.66784    48.051096    48.051096    46.006105    106223.86    579.92148   -3071.9501    889.12157   -2182.8285 
  295000     788.6817    48.139937    48.139937    46.091165    106814.13   -156.53207   -3069.7656    914.65154   -2155.1141 
  300000    761.70289    48.132217    48.132217    46.083773    106762.75    -431.7412   -3071.5909    883.36362   -2188.2273 
  305000     768.1611    48.149575    48.149575    46.100392     106878.3   -152.97834   -3071.3922    890.85335   -2180.5388 
  310000    773.19526    48.117217    48.117217    46.069412    106662.97    1049.1141   -3072.0619    896.69157   -2175.3703 
  315000     780.2566    48.031845    48.031845    45.987673    106096.23   -520.20255   -3075.6911    904.88076   -2170.8104 
  320000    772.78292    48.020088    48.020088    45.976417    106018.35    767.64558    -3081.501    896.21337   -2185.2876 
  325000    778.71941    48.179579    48.179579    46.129119    107078.22    603.31877   -3073.3982    903.09805   -2170.3002 
  330000    768.07794    48.041955    48.041955    45.997353    106163.24   -1665.7762   -3086.4832     890.7569   -2195.7263 
  335000    778.03932    48.167301    48.167301    46.117364    106996.38    357.88401   -3059.6025    902.30933   -2157.2931 
  340000    784.43537    48.097652    48.097652    46.050679    106532.91    1363.4228   -3061.9609    909.72697   -2152.2339 
  345000    774.33208     48.04445     48.04445    45.999742    106179.79   -44.336734   -3078.0743    898.00997   -2180.0644 
  350000    771.71581    48.137059    48.137059    46.088409    106794.98    -806.3494   -3052.9992    894.97581   -2158.0234 
  355000    762.46216     48.03931     48.03931    45.994821    106145.71    -713.1293   -3067.7063    884.24416   -2183.4622 
  360000    767.66175    48.004445    48.004445    45.961439    105914.77   -601.63463   -3057.0113    890.27423   -2166.7371 
  365000     777.8885    47.976155    47.976155    45.934353    105727.62     985.1709   -3060.1897    902.13442   -2158.0552 
  370000     767.8431    48.013856    48.013856     45.97045    105977.08   -394.10684   -3066.1472    890.48455   -2175.6626 
  375000    766.11164    48.072675    48.072675    46.026765    106367.03   -1207.9018   -3067.1987    888.47654   -2178.7222 
  380000    773.97082    48.004958    48.004958     45.96193    105918.16   -631.97547   -3084.3463      897.591   -2186.7553 
  385000    773.97169    48.110568    48.110568    46.063045    106618.76   -235.52319   -3082.3758    897.59201   -2184.7838 
  390000    764.30967    48.099185    48.099185    46.052147     106543.1   -289.91411   -3071.3256    886.38676   -2184.9388 
  395000    756.42896    47.938228    47.938228    45.898041    105477.08   -470.03512   -3074.9573    877.24733     -2197.71 
  400000    772.97473    47.989354    47.989354     45.94699    105814.91   -438.55858   -3076.9911    896.43582   -2180.5552 
  405000    769.04131    47.991965    47.991965     45.94949    105832.18    31.660313   -3065.8588    891.87414   -2173.9847 
  410000    769.57893    48.099758    48.099758    46.052695     106546.9    448.14572   -3075.8382    892.49764   -2183.3406 
  415000    771.75834    48.103052    48.103052     46.05585     106568.8    810.79821   -3065.0497    895.02514   -2170.0245 
  420000    785.68566    48.123273    48.123273     46.07521    106703.25   -1287.9416   -3074.9368    911.17696   -2163.7598 
  425000    779.86735    47.943463    47.943463    45.903052    105511.64    567.21409   -3083.4547    904.42934   -2179.0254 
  430000     765.6447    47.943315    47.943315    45.902911    105510.66   -637.56217   -3070.6014    887.93502   -2182.6664 
  435000    769.72687     47.95668     47.95668    45.915707    105598.92   -655.24999   -3061.1622     892.6692    -2168.493 
  440000    760.45488    48.001135    48.001135     45.95827    105892.86   -215.70497   -3066.6483    881.91627   -2184.7321 
  445000    775.53291     48.15705     48.15705    46.107549    106928.08   -1729.8216   -3061.9613     899.4026   -2162.5587 
  450000    773.57691    48.013941    48.013941    45.970531    105977.64   -607.62139   -3088.6044    897.13418   -2191.4702 
  455000      775.045    48.176756    48.176756    46.126416     107059.4    1316.1418   -3055.1656    898.83676   -2156.3288 
  460000    756.60497    48.161194    48.161194    46.111517    106955.69   -1123.9275   -3073.2038    877.45145   -2195.7524 
  465000    777.59407    48.022334    48.022334    45.978567    106033.22   -413.41909   -3078.6876    901.79296   -2176.8946 
  470000    771.55102     47.98499     47.98499    45.942812    105786.05    1009.3405   -3076.1548    894.78471   -2181.3701 
  475000    777.36182    48.024972    48.024972    45.981092     106050.7    1382.2871   -3077.3757    901.52362   -2175.8521 
  480000    777.35021    48.216202    48.216202    46.164184    107322.59    1077.7611   -3053.7727    901.51016   -2152.2626 
  485000    785.46553     47.91506     47.91506    45.875858    105324.23    1452.2761   -3089.7953    910.92167   -2178.8736 
  490000    771.58003     47.91628     47.91628    45.877026    105332.27    114.36966   -3081.6792    894.81835   -2186.8609 
  495000     770.7844    47.978718    47.978718    45.936807    105744.57   -364.21891   -3095.0118    893.89564   -2201.1162 
  500000    782.75515    48.035216    48.035216    45.990901    106118.58   -1137.2431   -3063.8686    907.77839   -2156.0902 
  505000    776.43498    47.921757    47.921757     45.88227     105368.4    621.94321   -3080.9931    900.44874   -2180.5444 
  510000    773.50979    48.086811    48.086811    46.040299    106460.89    -98.36279   -3066.8664    897.05634   -2169.8101 
  515000    770.68356    48.068438    48.068438    46.022708    106338.91    -522.5464   -3078.9268     893.7787   -2185.1481 
  520000     766.7773    48.117269    48.117269    46.069461    106663.31   -1517.2267   -3072.8617    889.24852   -2183.6132 
  525000    770.92177    48.194355    48.194355    46.143267    107176.77    415.75151   -3058.6898    894.05495   -2164.6348 
  530000    757.91815    48.099423    48.099423    46.052375    106544.68   -295.86051   -3066.5715    878.97437   -2187.5971 
  535000    769.50087       47.985       47.985    45.942821    105786.11    1216.3827    -3082.641    892.40711   -2190.2339 
  540000    774.44684    47.943946    47.943946    45.903515    105514.83    735.03611   -3074.7361    898.14306    -2176.593 
  545000    780.32756     47.96682     47.96682    45.925416    105665.92    1061.4892   -3091.5729    904.96306   -2186.6099 
  550000    774.36052    48.091345    48.091345    46.044641    106491.01    1307.9162   -3065.6377    898.04295   -2167.5948 
  555000    766.81284    47.874322    47.874322    45.836854    105055.81    1653.1773   -3085.9163    889.28973   -2196.6266 
  560000    778.40933    48.028525    48.028525    45.984494    106074.24    -451.3072   -3082.7087    902.73844   -2179.9703 
  565000    760.95487    47.864618    47.864618    45.827563    104991.94    21.905751   -3079.4025    882.49612   -2196.9064 
  570000    770.33446       47.972       47.972    45.930375    105700.16   -1037.0036   -3082.5509    893.37383   -2189.1771 
  575000    770.75815    47.961825    47.961825    45.920633    105632.91    304.02821   -3074.0013     893.8652   -2180.1361 
  580000    773.16001     47.91203     47.91203    45.872957    105304.25    -7.036903   -3076.0865    896.65068   -2179.4358 
  585000    779.31235    48.031215    48.031215     45.98707    106092.06   -1170.4111   -3083.8496    903.78569   -2180.0639 
  590000    781.50859    47.992764    47.992764    45.950255    105837.47    747.42079   -3074.2286    906.33272   -2167.8959 
  595000    767.84627    48.078302    48.078302    46.032153    106404.39    1615.2552   -3066.4785    890.48823   -2175.9903 
  600000    770.22045    48.138443    48.138443    46.089734    106804.19    463.89512   -3061.7767    893.24162   -2168.5351 
  605000    767.07285    48.022464    48.022464    45.978691    106034.08    42.397051   -3072.6469    889.59127   -2183.0557 
  610000    767.57781    47.973774    47.973774    45.932073    105711.88   -371.72162   -3075.2311    890.17689   -2185.0542 
  615000    779.31142    48.076087    48.076087    46.030032    106389.68    1381.2163   -3060.5888    903.78462   -2156.8042 
  620000    778.62717    47.986689    47.986689    45.944439    105797.29    1350.5145   -3079.8947    902.99107   -2176.9037 
  625000    792.89229    48.116075    48.116075    46.068318    106655.37    926.63684   -3058.3898    919.53465   -2138.8552 
  630000    774.40156    48.166406    48.166406    46.116507    106990.42   -821.76159   -3066.5965    898.09054    -2168.506 
  635000    755.85287    48.043057    48.043057    45.998408    106170.55    982.47765   -3059.0031    876.57922   -2182.4238 
  640000    766.73479    47.988075    47.988075    45.945766    105806.45    2106.5074   -3083.9555    889.19922   -2194.7562 
  645000    779.71587    48.077907    48.077907    46.031775    106401.76   -904.44866   -3076.7412    904.25366   -2172.4876 
  650000    764.79486     48.00499     48.00499    45.961961    105918.37    383.93265   -3072.2702    886.94944   -2185.3208 
  655000     780.2803    48.032462    48.032462    45.988263    106100.32    349.90324     -3068.55    904.90824   -2163.6418 
  660000    767.12603    48.160059    48.160059     46.11043    106948.13    439.39559   -3055.9352    889.65295   -2166.2823 
  665000    772.53593    48.161759    48.161759    46.112058    106959.46    961.91921    -3044.812    895.92693   -2148.8851 
  670000    767.75022    48.045063    48.045063    46.000328    106183.85    -1631.944   -3063.1653    890.37684   -2172.7885 
  675000    768.17849    48.133766    48.133766    46.085256    106773.06   -1168.0233   -3064.2418    890.87351   -2173.3683 
  680000    772.98996    48.037684    48.037684    45.993263    106134.93    805.11327   -3071.2601    896.45347   -2174.8066 
  685000    767.89505    48.153452    48.153452    46.104104    106904.12   -523.02444   -3066.2153     890.5448   -2175.6705 
  690000    771.71889    47.958201    47.958201    45.917163    105608.97   -274.04368     -3081.46     894.9794   -2186.4806 
  695000    772.59237    48.099746    48.099746    46.052684    106546.83    369.46923   -3083.8073    895.99239   -2187.8149 
  700000    765.43372    47.930779    47.930779    45.890908    105427.92    891.05788   -3065.2443    887.69035    -2177.554 
  705000    778.11775    47.860114    47.860114     45.82325     104962.3    1491.3541   -3093.2161    902.40029   -2190.8158 
  710000    773.77922    48.018462    48.018462    45.974859    106007.57   -41.313288   -3091.9533     897.3688   -2194.5845 
  715000    784.44754    48.045798    48.045798    46.001033    106188.73    280.34262   -3058.7227    909.74109   -2148.9816 
  720000     778.1856     48.12301     48.12301    46.074958     106701.5   -931.05383   -3057.3255    902.47898   -2154.8465 
  725000    775.44086     48.09174     48.09174    46.045019    106493.63    812.20228   -3073.3176    899.29584   -2174.0218 
  730000    762.59864    48.063854    48.063854     46.01832    106308.49   -510.59849   -3084.3376    884.40243   -2199.9352 
  735000    776.82708    48.099564    48.099564     46.05251    106545.62   -708.10649   -3070.6438    900.90347   -2169.7403 
  740000    775.36549     48.06706     48.06706    46.021389    106329.76    1570.0387   -3059.0077    899.20843   -2159.7992 
  745000    776.85581    47.990692    47.990692    45.948272    105823.76    1038.4221   -3076.8156    900.93679   -2175.8788 
  750000    779.28492    48.036163    48.036163    45.991807    106124.85   -1028.8558   -3069.1827    903.75388   -2165.4289 
  755000    780.83389    48.032574    48.032574    45.988371    106101.07    175.75286   -3061.8679    905.55025   -2156.3176 
  760000    776.00929    48.094938    48.094938    46.048081    106514.88   -222.47634   -3069.9239    899.95507   -2169.9689 
  765000    767.86738    47.971242    47.971242    45.929649    105695.15   -518.06118   -3085.6772    890.51272   -2195.1645 
  770000    765.71366    48.042628    48.042628    45.997997     106167.7   -70.968238   -3054.4105    888.01499   -2166.3955 
  775000    769.03345    48.189928    48.189928    46.139028    107147.24    1628.2027   -3059.5989    891.86502   -2167.7339 
  780000    774.91476    48.031974    48.031974    45.987797    106097.09   -595.22526    -3089.825    898.68571   -2191.1393 
  785000    771.36139    48.045642    48.045642    46.000883    106187.69   -551.92833   -3062.2142    894.56479   -2167.6494 
  790000    773.99565    48.099553    48.099553    46.052499    106545.54    121.83559   -3064.3798    897.61979     -2166.76 
  795000    762.44847    48.108723    48.108723    46.061279    106606.49    462.24486   -3059.7307    884.22828   -2175.5024 
  800000    771.37211    48.077045    48.077045    46.030949    106396.04   -510.11698   -3073.5504    894.57722   -2178.9732 
  805000    771.71379     47.92029     47.92029    45.880865    105358.72   -202.74556   -3091.8474    894.97348   -2196.8739 
  810000     774.6264    48.123205    48.123205    46.075144    106702.79    528.84081   -3070.8838    898.35129   -2172.5325 
  815000    773.74651    48.124211    48.124211    46.076108    106709.49    346.20812   -3060.4461    897.33086   -2163.1152 
  820000    793.24676    48.161918    48.161918     46.11221    106960.51    585.50885   -3071.4289    919.94573   -2151.4832 
  825000    772.45271    48.078143    48.078143    46.032001    106403.33     -1007.87   -3073.5362    895.83042   -2177.7058 
  830000     765.0386     48.04345     48.04345    45.998784    106173.15     570.0538   -3067.2254    887.23211   -2179.9933 
  835000    774.62295    47.928259    47.928259    45.888495    105411.29    494.42872   -3064.2568     898.3473   -2165.9095 
  840000    765.41869    48.128476    48.128476    46.080191    106737.86   -1477.5929   -3074.9821    887.67291   -2187.3092 
  845000    774.76916    48.050489    48.050489    46.005524    106219.83    1083.1194   -3076.0838    898.51686   -2177.5669 
  850000    773.89331    48.011366    48.011366    45.968065    105960.58    714.47087   -3071.3718    897.50111   -2173.8707 
  855000    776.09508    48.078055    48.078055    46.031917    106402.75    1104.6324   -3073.7042    900.05456   -2173.6497 
  860000    772.59196     48.04462     48.04462    45.999904    106180.91    965.61725   -3071.2147    895.99191   -2175.2228 
  865000    767.03792    48.044251    48.044251    45.999551    106178.46    404.83369   -3056.8661    889.55077   -2167.3154 
  870000    771.77627    48.035523    48.035523    45.991194    106120.61   -709.75312   -3061.3182    895.04594   -2166.2723 
  875000    780.61284    48.032228    48.032228    45.988039    106098.77   -899.59319   -3075.8548     905.2939   -2170.5609 
  880000    774.20558    48.014616    48.014616    45.971177    105982.11    -362.9698   -3080.7879    897.86326   -2182.9246 
  885000     770.1351     48.13428     48.13428    46.085749    106776.48    960.91514   -3072.0217    893.14263   -2178.8791 
  890000    774.28108    48.113805    48.113805    46.066145    106640.28    -334.3467   -3064.8051    897.95082   -2166.8543 
  895000    761.98015    48.203618    48.203618    46.152136    107238.59    11.412485   -3072.2556    883.68516   -2188.5704 
  900000    777.63512    47.987847    47.987847    45.945548    105804.95   -1398.8745   -3074.9284    901.84058   -2173.0878 
  905000    766.63632     47.99506     47.99506    45.952453    105852.66   -690.88433   -3080.5074    889.08502   -2191.4224 
  910000    782.88043    48.044227    48.044227    45.999528    106178.31    1728.9133   -3066.3257    907.92367    -2158.402 
  915000    771.33056    48.166086    48.166086      46.1162    106988.28   -1165.7682   -3063.2958    894.52904   -2168.7668 
  920000    761.97808    48.155904    48.155904    46.106452    106920.45   -588.56203   -3066.8823    883.68276   -2183.1996 
  925000    775.94987    48.042015    48.042015     45.99741    106163.64   -228.17776    -3071.932    899.88615   -2172.0458 
  930000    759.74025    48.143796    48.143796     46.09486    106839.82   -54.410093   -3067.2368    881.08749   -2186.1493 
  935000    782.99052    48.152679    48.152679    46.103364    106898.97    539.00376   -3063.8119    908.05135   -2155.7606 
  940000    786.03408    47.993487    47.993487    45.950947    105842.25   -280.60401   -3073.4258    911.58104   -2161.8448 
  945000    777.98171    48.114018    48.114018    46.066348    106641.69    186.72793   -3070.1443    902.24252   -2167.9017 
  950000    772.95168    47.976878    47.976878    45.935045     105732.4    798.86609   -3078.8637    896.40909   -2182.4546 
  955000    762.12264    48.172753    48.172753    46.122584    107032.72   -1951.1786   -3065.6173     883.8504   -2181.7669 
  960000    773.88512    47.989206    47.989206    45.946849    105813.93    1674.2981   -3081.3803    897.49161   -2183.8887 
  965000    781.81148    48.123644    48.123644    46.075565    106705.72   -416.81373    -3066.335    906.68399    -2159.651 
  970000      769.012    47.978366    47.978366     45.93647    105742.24   -1204.3963   -3077.3484    891.84015   -2185.5083 
  975000    776.01345    48.083017    48.083017    46.036667     106435.7   -689.99879   -3085.2985    899.95989   -2185.3386 
  980000    766.30759    48.118564    48.118564    46.070701    106671.92   -1099.2743   -3063.2104    888.70379   -2174.5066 
  985000    777.96407    48.150454    48.150454    46.101234    106884.15   -230.70305   -3072.8936    902.22206   -2170.6715 
  990000    770.38566    48.086176    48.086176    46.039692    106456.67   -552.57638   -3068.8029    893.43322   -2175.3697 
  995000     764.7774    48.037467    48.037467    45.993056    106133.49    943.27119   -3081.8997    886.92919   -2194.9705 
 1000000    779.62611    48.011068    48.011068     45.96778    105958.61    1533.7835   -3067.7387    904.14957   -2163.5892 
 1005000    775.25851    48.148942    48.148942    46.099787    106874.09   -722.25422   -3074.4837    899.08437   -2175.3993 
 1010000    785.67453    48.002873    48.002873    45.959934    105904.37     102.8313   -3080.1878    911.16406   -2169.0237 
 1015000     768.1338    48.223751    48.223751    46.171411    107373.01   -1136.2108    -3057.368    890.82168   -2166.5463 
 1020000    776.33254     48.05913     48.05913    46.013796    106277.14   -852.18132   -3076.8486    900.32994   -2176.5187 
 1025000    761.05518    47.968654    47.968654    45.927171    105678.04    1713.8229    -3078.757    882.61245   -2196.1446 
 1030000    784.72995    48.024906    48.024906    45.981029    106050.26    298.71523   -3066.2476    910.06861    -2156.179 
 1035000    763.10065    48.066607    48.066607    46.020956    106326.76   -1267.6783   -3072.6637    884.98463   -2187.6791 
 1040000    774.81332    47.908836    47.908836    45.869899    105283.18    2453.8768   -3078.3634    898.56807   -2179.7953 
 1045000    771.07679    48.001008    48.001008    45.958148    105892.02    2151.2978   -3082.9722    894.23473   -2188.7374 
 1050000    761.62045    47.866204    47.866204    45.829081    105002.37    2418.4497     -3095.76    883.26801    -2212.492 
 1055000    774.30973    48.102365    48.102365    46.055192    106564.23    562.25957   -3075.8573    897.98405   -2177.8732 
 1060000    764.51826    47.962127    47.962127    45.920922    105634.91    400.20126   -3071.5447    886.62866    -2184.916 
 1065000    765.21434    48.028504    48.028504    45.984474     106074.1    91.163824   -3076.6281    887.43592   -2189.1921 
 1070000    774.02715    48.075315    48.075315    46.029293    106384.55   -1019.8926   -3063.0985    897.65633   -2165.4422 
 1075000    782.71757    47.982425    47.982425    45.940356    105769.09   -1132.5366   -3063.9621     907.7348   -2156.2273 
 1080000    773.54723    48.012143    48.012143    45.968809    105965.73   -318.75765    -3062.807    897.09975   -2165.7072 
 1085000    784.28926    47.967632    47.967632    45.926193    105671.29    378.71703     -3064.57    909.55752   -2155.0125 
 1090000    769.10934    48.081912    48.081912     46.03561    106428.36   -934.28737   -3072.1366    891.95304   -2180.1836 
 1095000    771.36028    47.926386    47.926386    45.886702    105398.93   -18.914948    -3076.567     894.5635   -2182.0035 
 1100000    766.11316    48.070377    48.070377    46.024565    106351.78   -495.87049   -3066.7166     888.4783   -2178.2383 
 1105000    782.70773    48.048063    48.048063    46.003201    106203.74    484.95121   -3075.9437    907.72339   -2168.2203 
 1110000    781.10114     47.98102     47.98102    45.939011    105759.79    146.62823    -3074.767    905.86019   -2168.9068 
 1115000    784.24879    48.027469    48.027469    45.983483    106067.24   -478.25338   -3072.3355    909.51059   -2162.8249 
 1120000    764.25153    48.024775    48.024775    45.980903    106049.39    -719.4617   -3063.1909    886.31933   -2176.8716 
 1125000    773.80033    48.035434    48.035434    45.991109    106120.02    825.78904   -3068.4899    897.39328   -2171.0966 
 1130000    782.52059    47.991884    47.991884    45.949413    105831.65    1648.8312   -3076.2252    907.50636   -2168.7189 
 1135000    786.94416    47.980179    47.980179    45.938206    105754.23     948.1367    -3077.606    912.63647   -2164.9696 
 1140000    783.76425    48.105453    48.105453    46.058148    106584.75    568.99768   -3083.3527    908.94866    -2174.404 
 1145000    763.93439    48.179063    48.179063    46.128626    107074.79   -238.64193   -3066.9983    885.95154   -2181.0467 
 1150000    769.62129    47.999795    47.999795    45.956987    105883.99   -415.47735   -3081.8321    892.54676   -2189.2854 
 1155000    771.70136    48.186616    48.186616    46.135857    107125.15   -1454.0607   -3053.6233    894.95906   -2158.6642 
 1160000    786.18558    48.000151    48.000151    45.957327    105886.35    98.719816   -3086.5256    911.75673   -2174.7689 
 1165000    772.99335    48.107146    48.107146     46.05977    106596.01   -1613.3161   -3079.7177    896.45741   -2183.2603 
 1170000     768.1953    48.163619    48.163619    46.113839    106971.85   -1385.2782   -3075.9371      890.893   -2185.0441 
 1175000    779.94956    48.121565    48.121565    46.073574    106691.88   -60.888758   -3090.0794    904.52468   -2185.5547 
 1180000    779.99265    48.169245    48.169245    46.119225    107009.34   -1170.7639   -3061.0534    904.57466   -2156.4787 
 1185000    771.26374    47.988709    47.988709    45.946373    105810.65    1718.7452   -3079.5753    894.45155   -2185.1237 
 1190000    778.93701    48.026168    48.026168    45.982238    106058.62   -285.58007   -3063.8839     903.3504   -2160.5335 
 1195000     774.2757     48.07646     48.07646     46.03039    106392.16    423.62732   -3059.4308    897.94458   -2161.4862 
 1200000    774.12558    48.092783    48.092783    46.046017    106500.56    141.62461   -3067.2078    897.77048   -2169.4374 
 1205000    784.10428    48.174262    48.174262    46.124029    107042.78   -1343.9522   -3066.5301    909.34299   -2157.1871 
 1210000    776.76488    47.976126    47.976126    45.934325    105727.44   -858.88498   -3075.8408    900.83134   -2175.0094 
 1215000    766.34076    48.045871    48.045871    46.001102    106189.21    1759.5224   -3054.1792    888.74225    -2165.437 
 1220000      772.534    48.185957    48.185957    46.135226    107120.76    673.65164   -3063.8595    895.92469   -2167.9348 
 1225000    775.67754    48.104907    48.104907    46.057625    106581.12   -1112.1596   -3070.3346    899.57033   -2170.7643 
 1230000    771.93134    48.084172    48.084172    46.037773    106443.36    518.52647   -3074.0177    895.22577   -2178.7919 
 1235000     775.9956    48.123006    48.123006    46.074955    106701.47    444.66338   -3063.1199    899.93919   -2163.1807 
 1240000    766.07134    48.074827    48.074827    46.028825    106381.31    621.76364   -3074.2122     888.4298   -2185.7824 
 1245000    769.34793    48.057215    48.057215    46.011963    106264.44   -6.4865898    -3085.096    892.22973   -2192.8662 
 1250000     774.7436    48.024809    48.024809    45.980937    106049.62    37.201398   -3075.3161    898.48721   -2176.8288 
 1255000    765.62717    48.139197    48.139197    46.090456    106809.21     1663.652    -3060.664    887.91468   -2172.7493 
 1260000    776.30691    48.035352    48.035352    45.991031    106119.48    215.48387   -3079.5073    900.30022    -2179.207 
 1265000    779.15919    48.031634    48.031634    45.987471    106094.84   -267.89205   -3077.6833    903.60807   -2174.0753 
 1270000    764.69594    47.969263    47.969263    45.927754    105682.07    501.49803    -3081.401    886.83472   -2194.5663 
 1275000    766.94103    48.040086    48.040086    45.995563    106150.85   -1475.8543   -3073.4495     889.4384   -2184.0111 
 1280000    767.58427    48.069284    48.069284    46.023518    106344.52   -1616.9614   -3060.9418    890.18438   -2170.7575 
 1285000      777.378    48.056133    48.056133    46.010928    106257.27    1175.6829    -3063.928    901.54238   -2162.3856 
 1290000    776.15351    47.978889    47.978889     45.93697     105745.7    -37.28936   -3083.8148    900.12231   -2183.6925 
 1295000     789.7858    48.187715    48.187715    46.136909    107132.48   -173.65004   -3050.1823    915.93198   -2134.2504 
 1300000    777.89519    48.124579    48.124579     46.07646    106711.93   -11.018371   -3063.5735    902.14218   -2161.4313 
 1305000    767.61878    48.080783    48.080783    46.034528    106420.86   -965.86697   -3072.4659     890.2244   -2182.2415 
 1310000    777.06297    48.046048    48.046048    46.001271    106190.38    213.96164   -3079.5173    901.17704   -2178.3403 
 1315000    769.91968    48.126525    48.126525    46.078323    106724.88    300.82208   -3070.1601     892.8928   -2177.2673 
 1320000    777.04779    48.077337    48.077337    46.031228    106397.98    268.48201   -3064.7663    901.15943   -2163.6068 
 1325000    778.51865    47.959735    47.959735    45.918632    105619.11    -1033.721   -3069.2994    902.86522   -2166.4342 
 1330000     776.0399    48.043367    48.043367    45.998705    106172.61    -1466.746   -3076.4944    899.99056   -2176.5038 
 1335000    767.71286    48.014659    48.014659    45.971218    105982.39    365.11362   -3062.5953    890.33351   -2172.2618 
 1340000    782.40881    48.147718    48.147718    46.098614    106865.93    -1136.095   -3055.6263    907.37673   -2148.2496 
 1345000    769.44977    48.097589    48.097589    46.050619    106532.49    610.98221   -3054.0238    892.34784    -2161.676 
 1350000    772.64649    47.983235    47.983235    45.941132    105774.44    910.64235   -3073.1214    896.05515   -2177.0663 
 1355000    760.64235    48.075996    48.075996    46.029945    106389.08    857.88063   -3079.1617    882.13369    -2197.028 
 1360000    778.86926    48.051234    48.051234    46.006237    106224.77   -395.89026   -3066.1694    903.27183   -2162.8976 
 1365000    771.34176    48.089066    48.089066    46.042458    106475.87   -1786.2539   -3076.8167    894.54202   -2182.2747 
 1370000    773.47708    48.153123    48.153123    46.103789    106901.93     290.4448   -3054.7611    897.01841   -2157.7427 
 1375000    765.77776    48.002631    48.002631    45.959702    105902.76    349.13305    -3062.136    888.08933   -2174.0467 
 1380000    782.26327    48.024863    48.024863    45.980988    106049.98    -627.1438   -3078.4666    907.20794   -2171.2587 
 1385000    789.47666    48.054044    48.054044    46.008927    106243.41   -826.87716    -3054.897    915.57347   -2139.3236 
 1390000    769.17285    48.028213    48.028213    45.984196    106072.17    288.32237   -3068.1835    892.02669   -2176.1568 
 1395000    778.83187    48.013659    48.013659    45.970261    105975.77   -32.879531    -3078.016    903.22847   -2174.7875 
 1400000    778.36762    48.021326    48.021326    45.977601    106026.54   -165.93664   -3072.8942    902.69007   -2170.2042 
 1405000    775.86964     48.06641     48.06641    46.020767    106325.45     -1158.04   -3067.3631     899.7931     -2167.57 
 1410000     764.2386    48.088966    48.088966    46.042363     106475.2     287.4507   -3074.0095    886.30433   -2187.7052 
 1415000    769.55673     48.14368     48.14368    46.094749    106839.05     1040.235   -3057.9804    892.47188   -2165.5085 
 1420000    775.88433    47.966842    47.966842    45.925437    105666.07    863.28815   -3060.2561    899.81015   -2160.4459 
 1425000    768.19935    47.987654    47.987654    45.945362    105803.66    402.21712   -3071.0192     890.8977   -2180.1215 
 1430000    764.48281    48.013561    48.013561    45.970167    105975.12    4.1534106   -3070.0688    886.58755   -2183.4812 
 1435000    771.42786    48.051728    48.051728     46.00671    106228.05    1021.2678   -3074.1843    894.64188   -2179.5424 
 1440000    763.39201    47.904783    47.904783    45.866019    105256.47    1970.0673   -3082.6798    885.32253   -2197.3573 
 1445000    778.87066    48.088705    48.088705    46.042113    106473.47    1600.6859   -3070.2908    903.27345   -2167.0173 
 1450000    772.15032    48.015011    48.015011    45.971555    105984.72    312.67623   -3070.9558    895.47973    -2175.476 
 1455000    777.99741    48.129395    48.129395    46.081071    106743.98    1110.9292   -3063.0494    902.26073   -2160.7887 
 1460000    776.58429    47.968691    47.968691    45.927207    105678.29    655.18153   -3066.6355     900.6219   -2166.0136 
 1465000    767.46465    48.008439    48.008439    45.965263    105941.21    -547.4467   -3083.3101    890.04565   -2193.2644 
 1470000    763.28131    47.965882    47.965882    45.924517    105659.72   -181.24618   -3069.3917    885.19414   -2184.1975 
 1475000    772.79381    48.016081    48.016081     45.97258    105991.81    323.97247   -3077.7902      896.226   -2181.5642 
 1480000    775.00424    48.016979    48.016979    45.973439    105997.75   -264.96988    -3076.219    898.78949   -2177.4295 
 1485000    782.75234    47.962702    47.962702    45.921473    105638.71    1357.2442   -3080.9928    907.77512   -2173.2177 
 1490000     776.9377    47.913655    47.913655    45.874513    105314.96   -228.38343   -3078.0883    901.03176   -2177.0565 
 1495000    778.20518     48.02742     48.02742    45.983436    106066.92    376.59955   -3085.5316    902.50168   -2183.0299 
 1500000    783.73284    48.021256    48.021256    45.977534    106026.08    107.28322   -3073.0991    908.91223   -2164.1869 
 1505000    768.23663    47.999743    47.999743    45.956937    105883.65    -753.6286   -3059.2295    890.94094   -2168.2886 
 1510000    777.16847    48.001283    48.001283    45.958412    105893.84    281.61487   -3073.8923    901.29939   -2172.5929 
 1515000    769.29562    47.978555    47.978555    45.936651     105743.5     908.3795   -3069.8065    892.16907   -2177.6374 
 1520000    768.75094    48.048479    48.048479    46.003599     106206.5   -1323.1367   -3071.2886     891.5374   -2179.7512 
 1525000    775.70958    48.059475    48.059475    46.014127    106279.43   -35.069468   -3066.1847    899.60748   -2166.5772 
 1530000    767.82519    48.022853    48.022853    45.979063    106036.66   -1710.7959   -3082.6288    890.46378    -2192.165 
 1535000    790.83565    48.100488    48.100488    46.053394    106551.75   -2171.7603   -3075.6656    917.14951   -2158.5161 
 1540000    774.64647    48.012107    48.012107    45.968774    105965.49   -33.368783   -3065.0917    898.37457   -2166.7171 
 1545000    777.45715    47.970863    47.970863    45.929286    105692.64   -2000.1471   -3086.3944    901.63417   -2184.7602 
 1550000    777.67785    48.059819    48.059819    46.014457    106281.72   -258.63531   -3068.6402    901.89013   -2166.7501 
 1555000    771.38291    47.995057    47.995057     45.95245    105852.64   -18.263717   -3067.8354    894.58974   -2173.2456 
 1560000    766.77677    48.047204    48.047204    46.002378    106198.05   -1452.4909   -3063.5356     889.2479   -2174.2877 
 1565000    777.98875    48.063794    48.063794    46.018262    106308.09    813.46798   -3067.7393    902.25069   -2165.4886 
 1570000    771.33453    47.990549    47.990549    45.948135    105822.82    1859.3483   -3076.3773    894.53364   -2181.8437 
 1575000    782.21592     48.07906     48.07906    46.032879    106409.42    1160.6257   -3072.0986    907.15302   -2164.9455 
 1580000    781.87617    47.979088    47.979088    45.937161    105747.02   -679.53855   -3061.7009    906.75901   -2154.9418 
 1585000     774.7999     48.08306     48.08306    46.036708    106435.98    1130.2461   -3078.3192    898.55251   -2179.7667 
 1590000    766.87677    48.144254    48.144254    46.095298    106842.87    971.66225    -3058.811    889.36388   -2169.4471 
 1595000    760.21457    48.176096    48.176096    46.125785    107055.01   -512.84395   -3075.1874    881.63757   -2193.5498 
 1600000    772.89469    48.053492    48.053492    46.008399    106239.75   -1891.2189   -3081.2554      896.343   -2184.9124 
 1605000    770.96104    47.950901    47.950901    45.910174    105560.75   -610.79145   -3072.8055     894.1005    -2178.705 
 1610000    772.45041    48.075867    48.075867    46.029821    106388.22    -2040.762   -3078.0017    895.82775   -2182.1739 
 1615000     780.7743    48.037881    48.037881    45.993452    106136.24    122.55162    -3078.987    905.48114   -2173.5059 
 1620000    781.86668    48.124736    48.124736    46.076611    106712.98      1087.35   -3059.8618    906.74801   -2153.1138 
 1625000    788.42869    48.145946    48.145946    46.096918    106854.14    266.04805   -3073.9292    914.35811   -2159.5711 
 1630000    765.47395    48.162573    48.162573    46.112837    106964.88   -440.12811   -3064.4659      887.737   -2176.7289 
 1635000    774.41881    47.944037    47.944037    45.903602    105515.43   -607.18855   -3083.4963    898.11055   -2185.3857 
 1640000    770.42834    47.989527    47.989527    45.947156    105816.05   -624.02791   -3083.4575    893.48271   -2189.9748 
 1645000    769.98256    48.170489    48.170489    46.120416    107017.63    132.01639   -3061.6475    892.96573   -2168.6818 
 1650000    782.30504    47.962795    47.962795    45.921562    105639.33    -208.3422   -3076.4364    907.25638     -2169.18 
 1655000    769.97264    48.221213    48.221213    46.168982    107356.06   -996.73299   -3065.2876    892.95423   -2172.3333 
 1660000    766.61038    48.006799    48.006799    45.963693    105930.35   -383.84419   -3066.1617    889.05493   -2177.1068 
 1665000    771.71531     48.18818     48.18818    46.137354    107135.58   -1297.3407   -3069.2011    894.97524   -2174.2259 
 1670000    758.76233    47.991628    47.991628    45.949168    105829.96    -31.99926   -3067.1789    879.95339   -2187.2255 
 1675000    771.11025    47.949063    47.949063    45.908414    105548.61    157.14149   -3073.3165    894.27354    -2179.043 
 1680000    779.87469    48.104947    48.104947    46.057664    106581.39    323.10004   -3077.5533    904.43785   -2173.1155 
 1685000    774.74396     48.03416     48.03416     45.98989    106111.58    1230.1458   -3071.9788    898.48763   -2173.4911 
 1690000    770.83872    48.122148    48.122148    46.074133    106695.77   -389.98535   -3073.4045    893.95864   -2179.4459 
 1695000    779.78861    47.979426    47.979426    45.937485    105749.25   -481.88748   -3075.5298    904.33803   -2171.1917 
 1700000    772.34135    48.068015    48.068015    46.022304     106336.1    319.92765   -3076.2989    895.70127   -2180.5976 
 1705000    769.80396    48.044475    48.044475    45.999766    106179.95   -1280.7912   -3066.5253    892.75861   -2173.7667 
 1710000    780.85121    47.934929    47.934929    45.894882    105455.31   -925.05055   -3088.1294    905.57035    -2182.559 
 1715000    774.08762    47.908432    47.908432    45.869512    105280.52   -34.879107   -3073.7093    897.72646   -2175.9828 
 1720000    777.90066    48.004982    48.004982    45.961953    105918.32    -1378.425   -3070.1017    902.14852   -2167.9532 
 1725000    778.21105    48.139059    48.139059    46.090324    106808.29    583.89153   -3069.3771    902.50849   -2166.8686 
 1730000    780.40955     48.08575     48.08575    46.039284    106453.85   -844.06127   -3084.1565    905.05814   -2179.0983 
 1735000    774.78072    48.093067    48.093067    46.046289    106502.44   -31.116888   -3078.9095    898.53026   -2180.3793 
 1740000    769.64721    48.067862    48.067862    46.022157    106335.08    523.73224   -3084.3668    892.57682     -2191.79 
 1745000    781.61402     48.04319     48.04319    45.998535    106171.43   -803.20573   -3075.7306      906.455   -2169.2756 
 1750000    782.40461    47.943834    47.943834    45.903407    105514.09    1703.7523    -3085.242    907.37186   -2177.8701 
 1755000    780.48941    48.130271    48.130271     46.08191     106749.8    511.06091   -3059.1804    905.15076   -2154.0296 
 1760000     769.1263    48.118057    48.118057    46.070216    106668.55   -170.83211   -3073.2579    891.97271   -2181.2851 
 1765000    772.21834    48.096212    48.096212    46.049301    106523.34    120.56509   -3074.5626    895.55861    -2179.004 
 1770000    763.43947    48.220348    48.220348    46.168153    107350.28   -614.02156   -3063.1262    885.37757   -2177.7487 
 1775000    790.68316     48.05756     48.05756    46.012294    106266.73   -480.75158   -3064.1378    916.97267   -2147.1652 
 1780000    782.08139    48.088411    48.088411    46.041832    106471.52    -1220.226   -3068.4569    906.99701   -2161.4599 
 1785000    774.63494    48.148009    48.148009    46.098893    106867.87   -605.84605    -3059.095     898.3612   -2160.7338 
 1790000    771.46831    48.169924    48.169924    46.119875    107013.86     159.4376    -3070.524    894.68878   -2175.8352 
 1795000    759.61299    47.959759    47.959759    45.918655    105619.26    1277.2683   -3076.5006    880.93991   -2195.5607 
 1800000    765.02897    48.138268    48.138268    46.089567    106803.02   -1511.9012   -3067.5928    887.22094   -2180.3719 
 1805000     771.1786     48.00369     48.00369    45.960716    105909.77    55.915073   -3064.9952    894.35281   -2170.6423 
 1810000    776.12822    47.923336    47.923336    45.883782    105378.81   -633.64282   -3074.3673    900.09299   -2174.2743 
 1815000    773.06617    48.034828    48.034828    45.990529       106116   -1636.5257   -3071.2151    896.54186   -2174.6733 
 1820000    771.67832    47.961043    47.961043    45.919884    105627.75     135.9507   -3088.8815    894.93234   -2193.9491 
 1825000    767.09949     48.16464     48.16464    46.114817    106978.65    -516.5246   -3068.1153    889.62217   -2178.4931 
 1830000    765.78746    48.023547    48.023547    45.979728    106041.25    -1730.973   -3080.0392    888.10059   -2191.9387 
 1835000    782.90528    48.037685    48.037685    45.993265    106134.94   -948.99291   -3066.2563    907.95249   -2158.3038 
 1840000    768.36975     47.99992     47.99992    45.957107    105884.82   -974.81017   -3075.7125    891.09532   -2184.6171 
 1845000    767.73253    48.107989    48.107989    46.060576    106601.61   -2351.9148   -3064.3422    890.35632   -2173.9859 
 1850000    775.30049    48.119525    48.119525    46.071621    106678.32    -94.63735   -3080.3494    899.13305   -2181.2164 
 1855000    780.61693    48.091116    48.091116    46.044421    106489.49    641.93297   -3072.4845    905.29864   -2167.1858 
 1860000    763.74277    48.046384    48.046384    46.001593    106192.61   -520.67428   -3045.6858    885.72931   -2159.9565 
 1865000    780.24599    48.030751    48.030751    45.986625    106088.98    212.46893   -3076.3124    904.86845    -2171.444 
 1870000    775.12871    48.011763    48.011763    45.968445    105963.21    286.63583   -3089.2198    898.93383    -2190.286 
 1875000    766.12772    47.937483    47.937483    45.897327    105472.16     362.6369   -3071.8451    888.49518   -2183.3499 
 1880000    772.16907    48.090263    48.090263    46.043604    106483.82    1293.1978   -3077.5131    895.50147   -2182.0116 
 1885000    768.61943    48.039749    48.039749    45.995241    106148.62    458.27722   -3077.6357    891.38487   -2186.2508 
 1890000    763.00796    48.068417    48.068417    46.022688    106338.77   -1297.2866   -3080.9013    884.87713   -2196.0241 
 1895000    760.05967     47.90941     47.90941    45.870449    105286.97   -418.67032   -3079.0922    881.45793   -2197.6343 
 1900000    769.98948    48.097433    48.097433     46.05047    106531.46   -2454.5696   -3073.1093    892.97375   -2180.1355 
 1905000    773.16664    47.848088    47.848088    45.811736     104883.2    502.66855   -3070.4203    896.65838   -2173.7619 
 1910000    772.60108    48.103633    48.103633    46.056406    106572.66    2104.5232   -3058.7982    896.00249   -2162.7957 
 1915000    766.03707    48.007571    48.007571    45.964432    105935.46    1400.0353   -3079.1966    888.39005   -2190.8065 
 1920000    773.86393    48.046153    48.046153    46.001372    106191.07    680.46202   -3079.3781    897.46704    -2181.911 
 1925000    773.05256    48.119775    48.119775    46.071861    106679.98   -259.29267   -3064.9886    896.52607   -2168.4625 
 1930000    763.72023    48.167096    48.167096    46.117168    106995.02   -2199.6969   -3065.9762    885.70316    -2180.273 
 1935000    776.34165    48.150997    48.150997    46.101754    106887.77   -494.88286   -3072.7899     900.3405   -2172.4494 
 1940000    776.85714    48.151666    48.151666    46.102395    106892.23   -2663.2572   -3059.2387    900.93833   -2158.3004 
 1945000    768.23481    48.044999    48.044999    46.000267    106183.42   -309.68606   -3078.7835    890.93883   -2187.8447 
 1950000    766.27729     48.08793     48.08793    46.041371    106468.32   -181.89382   -3069.4214    888.66865   -2180.7528 
 1955000    776.44682    48.068853    48.068853    46.023106    106341.66   -98.031797   -3069.5938    900.46247   -2169.1313 
 1960000    774.42689    48.076894    48.076894    46.030805    106395.04    68.074985   -3056.6872    898.11992   -2158.5673 
 1965000    774.46278    47.924092    47.924092    45.884506     105383.8   -166.32061   -3082.0577    898.16154   -2183.8961 
 1970000    777.98712    47.913549    47.913549    45.874411    105314.26    290.72102   -3070.7252     902.2488   -2168.4764 
 1975000    773.85138    47.974145    47.974145    45.932428    105714.34    1196.6174   -3065.6866    897.45249   -2168.2341 
 1980000    773.68401     48.04705     48.04705     46.00223    106197.02    827.42537   -3082.4553    897.25838   -2185.1969 
 1985000    776.64893    48.201484    48.201484    46.150092    107224.34    191.96201    -3067.757    900.69686   -2167.0601 
 1990000    776.31276     48.09032     48.09032    46.043659     106484.2    750.72057   -3077.8544      900.307   -2177.5474 
 1995000    770.95484    48.075506    48.075506    46.029476    106385.82   -597.79366   -3061.2185    894.09331   -2167.1252 
 2000000    780.10784    48.067936    48.067936    46.022228    106335.58    1355.3901   -3060.7209    904.70824   -2156.0127 
Loop time of 29112.4 on 24 procs for 2000000 steps with 8973 atoms

Performance: 2.968 ns/day, 8.087 hours/ns, 68.699 timesteps/s
99.9% CPU use with 24 MPI tasks x 1 OpenMP threads

MPI task timing breakdown:
Section |  min time  |  avg time  |  max time  |%varavg| %total
---------------------------------------------------------------
Pair    | 21314      | 24185      | 26209      | 831.0 | 83.07
Bond    | 106.49     | 108.53     | 115.46     |  21.2 |  0.37
Kspace  | 1622.3     | 3649       | 6519.1     |2139.7 | 12.53
Neigh   | 358.04     | 359.36     | 360.98     |   4.8 |  1.23
Comm    | 589.4      | 599.21     | 608.37     |  19.9 |  2.06
Output  | 0.60135    | 0.60512    | 0.68669    |   2.2 |  0.00
Modify  | 136.93     | 153.06     | 182.2      | 119.0 |  0.53
Other   |            | 57.57      |            |       |  0.20

Nlocal:    373.875 ave 392 max 346 min
Histogram: 2 0 0 3 2 4 6 0 3 4
Nghost:    10700.3 ave 10755 max 10631 min
Histogram: 1 2 0 3 4 5 3 1 1 4
Neighs:    324474 ave 362634 max 282182 min
Histogram: 2 1 3 3 3 3 4 0 2 3

Total # of neighbors = 7787375
Ave neighs/atom = 867.867
Ave special neighs/atom = 2.45938
Neighbor list builds = 36003
Dangerous builds = 0

undump		npt
unfix		npt

# ****************  Now optimize at target TEMP2  ********************
# ****************  rdf  ********************

fix		1	all	npt	temp	${T2}	${T2}	0.1	iso	${Pre}	${Pre}	0.5
fix		1	all	npt	temp	373	${T2}	0.1	iso	${Pre}	${Pre}	0.5
fix		1	all	npt	temp	373	373	0.1	iso	${Pre}	${Pre}	0.5
fix		1	all	npt	temp	373	373	0.1	iso	1	${Pre}	0.5
fix		1	all	npt	temp	373	373	0.1	iso	1	1	0.5

dump		1	all	custom	500000	coldoptimize.dump	id	type	x	y	z
dump_modify	1	sort	id

thermo_style 	custom	step	temp	lx	ly	lz	vol	press	pe	ke	etotal
thermo		5000

restart	1000000    coldoptimize.restart

run		2000000
PPPM initialization ...
  using 12-bit tables for long-range coulomb (../kspace.cpp:332)
  G vector (1/distance) = 0.186974
  grid = 20 20 20
  stencil order = 5
  estimated absolute RMS force accuracy = 0.000755965
  estimated relative force accuracy = 5.24988e-05
  using single precision MKL FFT
  3d grid and FFT values/proc = 1950 400
Per MPI rank memory allocation (min/avg/max) = 13.65 | 13.66 | 13.67 Mbytes
Step Temp Lx Ly Lz Volume Press PotEng KinEng TotEng 
 2000000    780.10784    48.067936    48.067936    46.022228    106335.58    1355.3867   -3060.7209    904.70824   -2156.0127 
 2005000    373.23778     46.52871     46.52871    44.548509    96443.997    793.28137   -3688.5071    432.85208    -3255.655 
 2010000    373.03917    46.418138    46.418138    44.442644    95758.057   -478.98085   -3717.6117    432.62175     -3284.99 
 2015000    376.36891     46.24856     46.24856    44.280282     94712.39    1161.7095   -3727.5844    436.48332   -3291.1011 
 2020000    374.97302     46.20692     46.20692    44.240414    94456.801     288.9027   -3736.9578    434.86447   -3302.0934 
 2025000    374.71566    46.260023    46.260023    44.291257    94782.833    306.78474   -3743.4925    434.56601   -3308.9265 
 2030000    371.92597     46.21586     46.21586    44.248973    94511.634   -182.57343   -3743.0731    431.33073   -3311.7424 
 2035000     368.5627    46.215765    46.215765    44.248883    94511.055    1178.0997   -3743.3746    427.43028   -3315.9443 
 2040000    375.63229    46.210554    46.210554    44.243894     94479.09   -647.90171   -3745.7936    435.62904   -3310.1646 
 2045000    378.66279    46.179886    46.179886    44.214531    94291.109   -290.13296   -3752.7677    439.14358   -3313.6241 
 2050000    370.48526     46.07808     46.07808    44.117057     93668.87    232.87609   -3757.9897    429.65992   -3328.3297 
 2055000    370.93666    46.090271    46.090271     44.12873    93743.239   -705.18355   -3766.2807    430.18341   -3336.0972 
 2060000    371.61941    46.074017    46.074017    44.113167    93644.095   -418.17287   -3765.8915    430.97522   -3334.9163 
 2065000    371.94842    46.019328    46.019328    44.060806    93311.028    1071.3774   -3759.9551    431.35677   -3328.5983 
 2070000    370.82967    46.075758    46.075758    44.114835    93654.714   -179.26324   -3768.5493    430.05933   -3338.4899 
 2075000    372.46529    46.107876    46.107876    44.145585    93850.698   -926.78357   -3764.3763     431.9562   -3332.4201 
 2080000    374.56014    46.080171    46.080171     44.11906    93681.625    57.421687   -3758.5701    434.38565   -3324.1845 
 2085000    375.00019    46.088336    46.088336    44.126877    93731.434    602.67227   -3761.7253    434.89598   -3326.8293 
 2090000    370.28984      46.0869      46.0869    44.125502    93722.668   -592.41859   -3765.4907    429.43328   -3336.0574 
 2095000    372.75186    46.068552    46.068552    44.107935    93610.777    16.336965   -3767.2171    432.28854   -3334.9286 
 2100000    373.97889    46.072684    46.072684    44.111891    93635.966    897.11774   -3764.4962    433.71155   -3330.7847 
 2105000    373.64033    46.055803    46.055803    44.095729    93533.083   -503.35902   -3767.5268    433.31892   -3334.2078 
 2110000    373.40349    46.005682    46.005682     44.04774    93228.044    1187.9116   -3770.5906    433.04425   -3337.5464 
 2115000    380.73213    46.013101    46.013101    44.054844    93273.159   -113.40214    -3764.891    441.54343   -3323.3476 
 2120000    374.72796    46.037509    46.037509    44.078213    93421.668    284.50569   -3763.1314    434.58027   -3328.5511 
 2125000    378.00227    46.016255    46.016255    44.057864    93292.341    -129.8476   -3773.6581    438.37756   -3335.2805 
 2130000    379.70042     45.97527     45.97527    44.018623    93043.281   -115.52224   -3781.0408    440.34693   -3340.6939 
 2135000    375.15344    46.021679    46.021679    44.063057    93325.331   -68.231255   -3775.6547    435.07371    -3340.581 
 2140000    371.37937    46.050323    46.050323    44.090482    93499.698   -897.14165   -3767.2797    430.69683   -3336.5829 
 2145000    371.12183    46.060465    46.060465    44.100192    93561.486   -1581.7461   -3775.6695    430.39816   -3345.2713 
 2150000    366.60836    45.940297    45.940297    43.985138    92831.112    264.09514   -3775.0101    425.16379   -3349.8463 
 2155000    372.45377    45.966733    45.966733    44.010449    92991.462    511.11599   -3782.2639    431.94284   -3350.3211 
 2160000    371.81154    46.002058    46.002058    44.044271    93206.019     1245.463   -3778.3484    431.19803   -3347.1504 
 2165000    372.96702    46.003243    46.003243    44.045405    93213.217   -194.51113   -3772.3414    432.53807   -3339.8033 
 2170000    374.50895    46.029223    46.029223     44.07028    93371.235   -1712.4705   -3775.2273    434.32628    -3340.901 
 2175000    371.94479    45.998646    45.998646    44.041004    93185.277   -239.52885   -3760.1455    431.35256    -3328.793 
 2180000    373.77685    46.025378    46.025378    44.066599    93347.838   -75.990856   -3775.0106    433.47725   -3341.5333 
 2185000     371.7655    46.023517    46.023517    44.064816    93336.512   -41.293087   -3777.6894    431.14464   -3346.5448 
 2190000     371.3207    46.003512    46.003512    44.045663    93214.853    105.66791   -3776.1083    430.62879   -3345.4795 
 2195000    372.79702    45.993233    45.993233    44.035822    93152.386   -121.40646   -3776.3701    432.34091   -3344.0292 
 2200000    377.13728    45.945793    45.945793    43.990401    92864.438    1401.9364   -3784.3911    437.37441   -3347.0167 
 2205000    370.34948    45.995823    45.995823    44.038301    93168.122   -159.40747   -3775.2192    429.50244   -3345.7168 
 2210000    381.32694     46.01711     46.01711    44.058683    93297.541    360.49339   -3771.3313    442.23325    -3329.098 
 2215000    376.09772    46.049843    46.049843    44.090022    93496.774   -321.45224   -3770.2134    436.16881   -3334.0446 
 2220000    375.49175    46.067341    46.067341    44.106776    93603.395   -862.88971   -3768.8017    435.46605   -3333.3357 
 2225000    375.64983    46.061384    46.061384    44.101073    93567.091   -415.90363   -3768.1598    435.64938   -3332.5105 
 2230000    374.67076    45.966096    45.966096     44.00984    92987.599     1575.244   -3779.5994    434.51393   -3345.0855 
 2235000    371.17267    45.969552    45.969552    44.013148    93008.573    913.45239   -3773.9451    430.45712    -3343.488 
 2240000    373.63904    45.964668    45.964668    44.008472    92978.928   -220.74348   -3778.2393    433.31742   -3344.9219 
 2245000    368.80703    46.022719    46.022719    44.064053    93331.658    -242.1105   -3777.7649    427.71363   -3350.0512 
 2250000     371.1258    45.935651    45.935651    43.980691    92802.955    1264.6015   -3783.5804    430.40276   -3353.1776 
 2255000    374.15819    45.933371    45.933371    43.978507    92789.132   -53.652516     -3788.72     433.9195   -3354.8005 
 2260000    372.13569    45.915712    45.915712    43.961599    92682.155    238.17653   -3779.1281    431.57396   -3347.5541 
 2265000    380.89567    45.968355    45.968355    44.012002    93001.308    111.59111   -3773.0952    441.73309   -3331.3621 
 2270000    376.01733    45.944428    45.944428    43.989094    92856.158    753.24426   -3781.2048    436.07558   -3345.1292 
 2275000    381.76716     45.94744     45.94744    43.991977    92874.422     933.0778   -3780.4003    442.74378   -3337.6565 
 2280000    370.14198    46.006643    46.006643    44.048661    93233.891   -508.22801   -3776.1733     429.2618   -3346.9115 
 2285000    373.16554    46.004658    46.004658     44.04676    93221.819   -1142.1104   -3779.9251     432.7683   -3347.1568 
 2290000    371.21532    45.979551    45.979551    44.022722     93069.28    -236.7865   -3771.9661    430.50658   -3341.4595 
 2295000    373.55677    46.022856    46.022856    44.064184    93332.493   -585.01851   -3775.2363    433.22201   -3342.0143 
 2300000    379.01421    46.008428    46.008428     44.05037    93244.743   -106.74113   -3779.3081    439.55112   -3339.7569 
 2305000    372.20311    45.958318    45.958318    44.002392    92940.401    841.81986   -3783.6131    431.65214    -3351.961 
 2310000    372.97627    45.972781    45.972781     44.01624    93028.171    202.68492   -3782.9624    432.54879   -3350.4136 
 2315000    380.36738    46.029724    46.029724    44.070759     93374.28   -412.91818   -3777.1792    441.12043   -3336.0588 
 2320000    370.81343     45.92375     45.92375    43.969296    92730.842    1439.3324   -3786.2444     430.0405   -3356.2039 
 2325000    372.30775    45.943009    45.943009    43.987735    92847.557    540.91929   -3778.0653    431.77349   -3346.2918 
 2330000    371.70681    45.995679    45.995679    44.038164    93167.251    608.88014   -3775.3883    431.07658   -3344.3117 
 2335000    373.09671       45.966       45.966    44.009747    92987.013   -1027.8377   -3778.2437    432.68847   -3345.5553 
 2340000    371.07444    46.007513    46.007513    44.049494    93239.181    -869.6186   -3778.0729     430.3432   -3347.7297 
 2345000    376.83912    45.966361    45.966361    44.010094    92989.208   -766.95136   -3786.5325    437.02862   -3349.5039 
 2350000    376.52489    45.928088    45.928088    43.973449    92757.122   -24.632567    -3777.809    436.66421   -3341.1448 
 2355000    376.39707    45.947469    45.947469    43.992005    92874.599    142.65457   -3783.4225    436.51597   -3346.9066 
 2360000    372.35661    45.943802    45.943802    43.988494    92852.361   -628.15671     -3783.36    431.83016   -3351.5299 
 2365000     375.1394     45.99967     45.99967    44.041985    93191.502   -276.70821   -3788.3189    435.05743   -3353.2615 
 2370000    372.06292    45.984084    45.984084    44.027062    93096.807   -798.99035   -3783.9719    431.48956   -3352.4823 
 2375000    378.26236    46.016216    46.016216    44.057827    93292.104   -843.64688   -3782.7598    438.67919   -3344.0806 
 2380000    375.13581    45.929971    45.929971    43.975252    92768.534    685.61015   -3784.5236    435.05326   -3349.4704 
 2385000    370.70254    45.979347    45.979347    44.022527     93068.04     377.1096   -3781.7054     429.9119   -3351.7936 
 2390000    376.33153    45.922949    45.922949    43.968528    92725.986   -125.87142   -3793.1079    436.43996   -3356.6679 
 2395000    376.32051     45.96024     45.96024    44.004233    92952.063    -270.5157   -3776.6754    436.42719   -3340.2482 
 2400000    376.62375    45.923688    45.923688    43.969236    92730.464    7.0520867   -3787.3628    436.77885   -3350.5839 
 2405000    375.11067    45.950655    45.950655    43.995055    92893.916    524.88352   -3785.2025    435.02411   -3350.1783 
 2410000    370.65007    45.917681    45.917681    43.963485     92694.08    634.96806     -3785.07    429.85104    -3355.219 
 2415000    374.47929    45.948953    45.948953    43.993426    92883.595       7.1275   -3780.1087    434.29188   -3345.8168 
 2420000    372.11542     45.92295     45.92295     43.96853    92725.997    216.39044   -3789.3254    431.55045   -3357.7749 
 2425000    371.37629    45.938555    45.938555    43.983471    92820.553    330.16267   -3784.6579    430.69327   -3353.9647 
 2430000     372.7472    45.974442    45.974442     44.01783    93038.257      215.415   -3784.4086    432.28314   -3352.1255 
 2435000    373.60091    45.980214    45.980214    44.023356    93073.303    227.02039   -3781.4851     433.2732   -3348.2119 
 2440000    369.19255    45.981574    45.981574    44.024659    93081.566   -1216.4807    -3781.146    428.16073   -3352.9853 
 2445000    378.66432    45.899913    45.899913    43.946473    92586.516    348.62818   -3789.6771    439.14535   -3350.5317 
 2450000    369.36703    45.903198    45.903198    43.949619      92606.4    475.96035    -3789.377    428.36308   -3361.0139 
 2455000    374.25965    45.917803    45.917803    43.963601    92694.818   -184.90874   -3784.7386    434.03716   -3350.7015 
 2460000     370.6108    45.940395    45.940395    43.985232    92831.706   -1606.7303   -3787.3028    429.80551   -3357.4973 
 2465000    371.22744    45.895521    45.895521    43.942268    92559.945    549.70375   -3791.4263    430.52064   -3360.9056 
 2470000    369.67608    45.880032    45.880032    43.927439    92466.264    1538.5733   -3786.6088    428.72149   -3357.8873 
 2475000    369.67653    45.914403    45.914403    43.960346    92674.229   -564.94641   -3791.2751    428.72202   -3362.5531 
 2480000    375.42796    45.893392    45.893392    43.940229     92547.06   -426.07863   -3788.2344    435.39208   -3352.8423 
 2485000    371.26456    45.923124    45.923124    43.968697     92727.05    265.24895   -3789.2196    430.56369    -3358.656 
 2490000    372.52456    45.922539    45.922539    43.968136    92723.507    164.39867    -3788.903    432.02494   -3356.8781 
 2495000    370.86595    45.937202    45.937202    43.982175    92812.354   -494.05514   -3788.2523     430.1014   -3358.1509 
 2500000    378.53609    45.942077    45.942077    43.986843    92841.904     10.01382   -3785.8303    438.99664   -3346.8337 
 2505000    378.76805    45.927269    45.927269    43.972665    92752.157   -345.99865   -3785.2534    439.26564   -3345.9878 
 2510000    370.87649    45.930138    45.930138    43.975412    92769.541   -859.79396   -3779.7422    430.11363   -3349.6286 
 2515000    373.13919    45.953449    45.953449     43.99773    92910.862   -241.38424   -3788.5626    432.73773   -3355.8248 
 2520000    371.01743    45.918478    45.918478    43.964248    92698.905   -301.36497   -3789.6078    430.27708   -3359.3307 
 2525000    368.26593    45.958105    45.958105    44.002189    92939.111    -582.7352   -3778.2026    427.08611   -3351.1165 
 2530000    378.22208    45.880342    45.880342    43.927735    92468.137    874.51949   -3791.2601    438.63248   -3352.6276 
 2535000    376.25598    45.899174    45.899174    43.945765    92582.044   -569.30311   -3794.4643    436.35235    -3358.112 
 2540000    370.60764    45.903682    45.903682    43.950081    92609.326   -268.42036   -3792.4625    429.80184   -3362.6606 
 2545000    376.61496    45.906795    45.906795    43.953062    92628.168   -362.44278   -3782.6069    436.76867   -3345.8383 
 2550000    375.37334    45.930198    45.930198    43.975469    92769.905    275.60681   -3784.5125    435.32873   -3349.1838 
 2555000    376.76568    45.976296    45.976296    44.019605    93049.512    1249.7065   -3781.8576    436.94346   -3344.9142 
 2560000    375.70205    45.939283    45.939283    43.984167    92824.966    87.763961   -3787.1875    435.70994   -3351.4776 
 2565000    370.96998    45.906108    45.906108    43.952405    92624.012    680.26229   -3791.3921    430.22205   -3361.1701 
 2570000    379.84376    45.994822    45.994822    44.037343    93162.041   -1510.5618   -3788.9779    440.51317   -3348.4648 
 2575000    372.25061    45.961514    45.961514    44.005453    92959.795     472.5375   -3780.1165    431.70723   -3348.4093 
 2580000    373.89532    45.962253    45.962253     44.00616    92964.277   -519.36671   -3791.3628    433.61464   -3357.7482 
 2585000    368.12217     45.93289     45.93289    43.978046    92786.216    1017.8515   -3787.5093    426.91939   -3360.5899 
 2590000    375.15875    45.894845    45.894845    43.941621    92555.851   -1276.0381   -3802.2486    435.07986   -3367.1688 
 2595000    371.17444     46.01047     46.01047    44.052325    93257.157   -1002.2089   -3793.1706    430.45918   -3362.7114 
 2600000    368.33224    45.881984    45.881984    43.929307    92478.063   -114.09076   -3793.4194    427.16301   -3366.2564 
 2605000    369.05944    45.947042    45.947042    43.991596    92872.008     344.0119   -3784.9237    428.00636   -3356.9174 
 2610000    374.64587    45.948726    45.948726    43.993209    92882.221   -695.11062   -3791.0386    434.48507   -3356.5536 
 2615000    375.68075    45.964758    45.964758    44.008559    92979.478   -157.55745   -3786.5178    435.68524   -3350.8326 
 2620000    376.68442    45.918693    45.918693    43.964454     92700.21   -563.67472   -3788.6298    436.84922   -3351.7806 
 2625000    372.89241    45.926103    45.926103    43.971549    92745.097     1165.429   -3786.8694    432.45154   -3354.4179 
 2630000    368.76058    45.972344    45.972344    44.015822     93025.52    785.72227   -3793.0961    427.65976   -3365.4364 
 2635000    376.17679    45.934772    45.934772    43.979849    92797.627   -530.11757    -3795.541    436.26051   -3359.2805 
 2640000    375.73205    45.902747    45.902747    43.949186    92603.666    135.12909   -3788.4792    435.74473   -3352.7344 
 2645000    368.06753    45.919203    45.919203    43.964942    92703.301    310.41398   -3792.1561    426.85602   -3365.3001 
 2650000    376.59472    45.942272    45.942272    43.987029    92843.085    621.77237    -3791.293    436.74519   -3354.5478 
 2655000    374.34368    46.006928    46.006928    44.048934    93235.622   -1221.8217   -3793.4283    434.13461   -3359.2937 
 2660000    369.82311    45.976932    45.976932    44.020214    93053.376    580.30678   -3795.2942      428.892   -3366.4022 
 2665000    368.58665    45.939245    45.939245    43.984131    92824.735    124.31356    -3797.164    427.45806   -3369.7059 
 2670000    367.99932    45.947281    45.947281    43.991825    92873.459    1742.9907    -3787.434    426.77691   -3360.6571 
 2675000     369.4864    45.947206    45.947206    43.991753    92873.002   -196.25709   -3792.8045    428.50151    -3364.303 
 2680000    370.93433    45.942211    45.942211    43.986971    92842.718   -3.9652773   -3796.7145    430.18072   -3366.5338 
 2685000    376.47893    45.950753    45.950753     43.99515    92894.514    420.78855   -3792.3714    436.61091   -3355.7605 
 2690000     373.9672    45.914601    45.914601    43.960536    92675.431   -58.783972   -3801.4139      433.698   -3367.7159 
 2695000    367.48882    45.997932    45.997932     44.04032    93180.939   -697.55943   -3791.1425    426.18488   -3364.9576 
 2700000    374.17636    45.955027    45.955027    43.999241    92920.435   -987.42817   -3792.7484    433.94056   -3358.8079 
 2705000    376.44195    46.018984    46.018984    44.060477    93308.939   -436.00152   -3784.3905    436.56801   -3347.8225 
 2710000    372.32532    45.908094    45.908094    43.954306    92636.036    641.70951   -3795.3129    431.79387    -3363.519 
 2715000    375.59217    45.957423    45.957423    44.001536    92934.974    155.04704   -3801.5411    435.58251   -3365.9586 
 2720000    366.84215    45.997531    45.997531    44.039937    93178.503   -424.64832   -3788.7772    425.43492   -3363.3423 
 2725000    366.76025      45.9623      45.9623    44.006205    92964.563    59.072295   -3792.1249    425.33994   -3366.7849 
 2730000    373.36176    45.984629    45.984629    44.027584    93100.118      320.472   -3794.9857    432.99586   -3361.9898 
 2735000    370.89019    46.015783    46.015783    44.057412     93289.47    167.85056   -3792.0886    430.12952   -3361.9591 
 2740000    375.40861    45.960284    45.960284    44.004275    92952.331   -1727.8944   -3790.5958    435.36964   -3355.2262 
 2745000    375.14514    45.978265    45.978265     44.02149    93061.468   -232.41021   -3793.2969    435.06408   -3358.2328 
 2750000    370.51218    46.002712    46.002712    44.044897    93209.991   -798.04036    -3794.655    429.69113   -3364.9639 
 2755000    370.86923    45.943766    45.943766     43.98846    92852.147    432.07456   -3800.6254    430.10521   -3370.5201 
 2760000    370.55541    45.958378    45.958378     44.00245    92940.766   -14.216153   -3791.6598    429.74126   -3361.9185 
 2765000    374.01181    45.952923    45.952923    43.997227    92907.676   -231.24852   -3793.7378    433.74974   -3359.9881 
 2770000    371.21187    45.968926    45.968926    44.012549    93004.773   -1386.9254   -3789.4003    430.50258   -3358.8977 
 2775000    369.43848    45.980256    45.980256    44.023397    93073.557   -929.67105    -3789.795    428.44594   -3361.3491 
 2780000     373.8454    45.975981    45.975981    44.019303    93047.598   -1310.0461   -3794.7394    433.55675   -3361.1827 
 2785000    366.19398    46.003187    46.003187    44.045352    93212.881    242.41212    -3790.358    424.68322   -3365.6747 
 2790000    371.31354    45.939583    45.939583    43.984455    92826.788   -299.28468   -3798.4767    430.62049   -3367.8563 
 2795000    369.81767    46.012642    46.012642    44.054405    93270.368   -1219.2588   -3789.5417    428.88569    -3360.656 
 2800000    371.11502    45.931457    45.931457    43.976675    92777.535    697.16273   -3803.4549    430.39026   -3373.0646 
 2805000    374.74657    45.947606    45.947606    43.992136    92875.426   -767.28172    -3787.268    434.60185   -3352.6662 
 2810000    372.97056    45.952705    45.952705    43.997018    92906.349    315.51624   -3793.2831    432.54218   -3360.7409 
 2815000    373.00327     45.95119     45.95119    43.995568    92897.164    781.51227   -3793.3785    432.58011   -3360.7984 
 2820000    373.72622    45.951522    45.951522    43.995886    92899.179    138.95149   -3786.5216    433.41852   -3353.1031 
 2825000    372.29166    46.001643    46.001643    44.043874    93203.494   -305.89788   -3790.0831    431.75484   -3358.3282 
 2830000    375.06928    45.963067    45.963067     44.00694    92969.217    578.73493   -3783.2067    434.97611   -3348.2306 
 2835000    371.63055    45.966166    45.966166    44.009906    92988.019   -329.85112   -3793.4354    430.98813   -3362.4473 
 2840000    374.40247    45.985694    45.985694    44.028604    93106.587   -1771.8018   -3792.6146    434.20279   -3358.4118 
 2845000     369.1973    45.931945    45.931945    43.977142    92780.494    1137.7973   -3794.2766    428.16624   -3366.1104 
 2850000    376.14056     46.00752     46.00752      44.0495     93239.22    30.900424   -3797.8315    436.21849    -3361.613 
 2855000    369.93956     45.99907     45.99907     44.04141    93187.853    -1776.369   -3794.8322    429.02706   -3365.8052 
 2860000    376.01661    46.009028    46.009028    44.050944    93248.387   -160.64635   -3793.2032    436.07474   -3357.1285 
 2865000    377.20365    45.925952    45.925952    43.971404    92744.182    580.57128   -3795.0864    437.45138    -3357.635 
 2870000    371.76109    46.000871    46.000871    44.043135    93198.804   -1211.0782   -3797.3261    431.13952   -3366.1866 
 2875000    380.26511    45.921587    45.921587    43.967225     92717.74    450.85744   -3795.3266    441.00182   -3354.3247 
 2880000     375.9983    45.987633    45.987633     44.03046    93118.362   -682.56769   -3785.9322     436.0535   -3349.8787 
 2885000    370.25874    46.004898    46.004898     44.04699    93223.278   -963.13731   -3800.2598    429.39722   -3370.8626 
 2890000    372.61664    46.047735    46.047735    44.088004    93483.938    118.71516   -3788.7307    432.13172    -3356.599 
 2895000     369.7873    45.979005    45.979005    44.022199    93065.962    516.08835   -3796.2611    428.85048   -3367.4106 
 2900000    378.40593    45.957417    45.957417    44.001529    92934.933    509.39577   -3792.8915    438.84569   -3354.0458 
 2905000    368.34856    45.951043    45.951043    43.995427    92896.272     705.1099   -3786.6453    427.18194   -3359.4634 
 2910000    377.59493    45.957581    45.957581    44.001687    92935.929   -244.93295   -3790.3331    437.90516   -3352.4279 
 2915000    371.51878    45.971567    45.971567    44.015078    93020.805     169.1868   -3796.8223    430.85851   -3365.9638 
 2920000    374.15201     45.95901     45.95901    44.003055    92944.602    670.25506   -3794.4762    433.91232   -3360.5639 
 2925000    370.46297    46.019592    46.019592    44.061058    93312.633   -574.04393   -3786.3724    429.63406   -3356.7384 
 2930000    377.09467    45.926724    45.926724    43.972143    92748.855    584.97843   -3797.3826    437.32499   -3360.0576 
 2935000    378.37298    45.978234    45.978234    44.021461    93061.282   -583.01653   -3791.3239    438.80748   -3352.5164 
 2940000    375.29552    45.979083    45.979083    44.022274    93066.436    265.69226   -3787.6933    435.23848   -3352.4548 
 2945000    375.46736    45.961282    45.961282     44.00523    92958.384    -639.7796   -3794.8816    435.43777   -3359.4438 
 2950000    375.99972     45.90608     45.90608    43.952378    92623.843   -507.69269   -3792.8403    436.05515   -3356.7852 
 2955000    373.11924    45.966217    45.966217    44.009955    92988.331   -955.05454   -3787.7772    432.71459   -3355.0626 
 2960000    378.67786    45.951903    45.951903     43.99625    92901.486    1068.0128   -3792.5554    439.16105   -3353.3944 
 2965000    370.96777    45.953696    45.953696    43.997967    92912.361   -1298.3484   -3794.4682    430.21949   -3364.2487 
 2970000     372.7116    45.948517    45.948517    43.993009    92880.954   -168.13035   -3789.6045    432.24185   -3357.3626 
 2975000    372.22388    45.966472    45.966472    44.010199    92989.879    -782.2511   -3785.8303    431.67623   -3354.1541 
 2980000    372.51724     45.91825     45.91825    43.964029    92697.525    917.77232   -3794.2455    432.01644    -3362.229 
 2985000    377.77444    45.948268    45.948268    43.992771    92879.445    939.81242   -3790.6964    438.11334   -3352.5831 
 2990000    379.66465    45.919812    45.919812    43.965525    92706.987   -145.29569   -3797.7864    440.30546   -3357.4809 
 2995000    377.56282    45.964122    45.964122     44.00795    92975.618   -597.40372   -3789.4276    437.86792   -3351.5597 
 3000000    371.37718    45.950567    45.950567    43.994971    92893.385   -758.03042   -3788.1771    430.69429   -3357.4828 
 3005000    368.85973    45.943354    45.943354    43.988066    92849.649   -715.89872    -3791.004    427.77475   -3363.2293 
 3010000    371.65187    45.924186    45.924186    43.969713     92733.48    37.558706   -3783.1932    431.01286   -3352.1803 
 3015000    367.06782    45.907775    45.907775       43.954    92634.102    214.29925   -3784.9275    425.69663   -3359.2308 
 3020000    376.02071    45.935053    45.935053    43.980118    92799.328    1008.5545    -3792.985     436.0795   -3356.9055 
 3025000     375.3341    45.944747    45.944747    43.989399    92858.095   -233.83878   -3789.6468    435.28322   -3354.3635 
 3030000    375.68274    46.013459    46.013459    44.055187    93275.336    711.77446   -3787.7048    435.68755   -3352.0173 
 3035000      372.919    45.963096    45.963096    44.006967    92969.393    -439.2945   -3792.7919    432.48237   -3360.3095 
 3040000    368.29471    45.906056    45.906056    43.952354    92623.694    326.59516   -3789.2408    427.11949   -3362.1213 
 3045000    372.74317     45.97504     45.97504    44.018403    93041.886   -1126.2402   -3784.9298    432.27846   -3352.6514 
 3050000    375.05721    45.859189    45.859189    43.907482    92340.298     1793.301   -3789.3443     434.9621   -3354.3822 
 3055000     376.6697    45.915751    45.915751    43.961637    92682.396    522.19966   -3791.0799    436.83215   -3354.2477 
 3060000    373.68671    45.971923    45.971923    44.015418    93022.963   -708.34808    -3787.506     433.3727   -3354.1333 
 3065000    370.67912    45.937507    45.937507    43.982468    92814.204   -781.75521   -3794.1248    429.88474   -3364.2401 
 3070000    374.10544    45.850282    45.850282    43.898954    92286.505    1229.5643   -3792.6892    433.85831   -3358.8309 
 3075000    374.48246    45.954248    45.954248    43.998496    92915.714   -824.98682    -3790.953    434.29555   -3356.6575 
 3080000    371.28312    45.967506    45.967506     44.01119    92996.156    213.15056   -3791.2833    430.58521   -3360.6981 
 3085000     377.3863    45.919046    45.919046    43.964792    92702.346   -192.08711   -3785.6456     437.6632   -3347.9824 
 3090000    370.76797    45.955257    45.955257    43.999461    92921.829    454.96863   -3791.3046    429.98778   -3361.3168 
 3095000    378.09082    45.892388    45.892388    43.939269     92540.99     219.9453   -3794.0683    438.48025   -3355.5881 
 3100000    368.25464    45.910449    45.910449    43.956561    92650.291    407.83844   -3792.6637    427.07302   -3365.5907 
 3105000    373.32827    45.906455    45.906455    43.952737    92626.112    1279.4198   -3797.9331    432.95702   -3364.9761 
 3110000     376.7224    45.965218    45.965218    44.008999    92982.266    548.83013    -3788.901    436.89327   -3352.0077 
 3115000    374.17065    45.952106    45.952106    43.996445    92902.717    103.22862   -3798.4526    433.93394   -3364.5186 
 3120000    372.26156    45.965158    45.965158    44.008941    92981.902   -902.33744   -3790.3079    431.71993    -3358.588 
 3125000    368.45758    45.936623    45.936623    43.981621    92808.844   -173.62283   -3790.7542    427.30836   -3363.4459 
 3130000    380.31723    45.953115    45.953115    43.997411    92908.837    299.24083   -3798.1823    441.06227     -3357.12 
 3135000    371.21341    45.950617    45.950617     43.99502    92893.691   -998.62768   -3795.1091    430.50437   -3364.6048 
 3140000    376.79067     45.96295     45.96295    44.006828    92968.507   -168.70465   -3795.0398    436.97244   -3358.0673 
 3145000    375.52492    45.960481    45.960481    44.004464    92953.527   -816.09361   -3789.4196    435.50452    -3353.915 
 3150000    375.35993    45.910939    45.910939    43.957029    92653.255    297.50203   -3795.4122    435.31318    -3360.099 
 3155000    371.10602    46.010687    46.010687    44.052533    93258.479   -1099.7414   -3795.1774    430.37983   -3364.7976 
 3160000    372.56056    45.953336    45.953336    43.997622    92910.179   -904.22763   -3788.1507    432.06669    -3356.084 
 3165000    371.30632     45.94694     45.94694    43.991499    92871.392   -342.69542   -3795.9588    430.61212   -3365.3467 
 3170000    369.78122    45.963732    45.963732    44.007576    92973.249   -140.98501    -3788.167    428.84342   -3359.3235 
 3175000    372.42758    45.992485    45.992485    44.035106    93147.842   -228.00056   -3790.5855    431.91246    -3358.673 
 3180000    380.51433    45.907361    45.907361    43.953604    92631.598     488.4435   -3793.1184    441.29085   -3351.8276 
 3185000    369.80783    45.965032    45.965032    44.008821    92981.139   -734.19916   -3789.2749    428.87428   -3360.4006 
 3190000     375.6732     45.98912     45.98912    44.031884    93127.396   -445.94661   -3783.9188    435.67648   -3348.2424 
 3195000    369.43253    45.960221    45.960221    44.004214    92951.944    1412.2934   -3784.8351    428.43904   -3356.3961 
 3200000    374.50663    45.907684    45.907684    43.953913     92633.55     688.3576   -3794.3695    434.32359   -3360.0459 
 3205000     370.5775     45.92088     45.92088    43.966548    92713.455   -416.13875   -3790.8252    429.76689   -3361.0583 
 3210000    374.26433     45.92835     45.92835      43.9737    92758.707   -983.94377   -3796.1053    434.04258   -3362.0627 
 3215000    372.97086    45.928189    45.928189    43.973546    92757.736   -817.82439   -3793.6828    432.54252   -3361.1403 
 3220000    376.49498    45.886821    45.886821    43.933938    92507.315    449.70883   -3799.0686    436.62952   -3362.4391 
 3225000    371.88013    46.011176    46.011176    44.053001    93261.448   -197.00099   -3792.6728    431.27757   -3361.3952 
 3230000    372.51051    45.917158    45.917158    43.962984    92690.913    761.60739   -3794.5919    432.00864   -3362.5832 
 3235000    374.69837    45.970328    45.970328    44.013892    93013.285    204.18616   -3792.3923    434.54595   -3357.8463 
 3240000    372.05375    45.934297    45.934297    43.979394    92794.748   -83.331802   -3796.7722    431.47893   -3365.2932 
 3245000    373.81239    45.958443    45.958443    44.002513    92941.162    345.03306   -3790.8599    433.51846   -3357.3415 
 3250000    377.62138    45.887831    45.887831    43.934905    92513.424    1640.4553   -3793.4601    437.93583   -3355.5243 
 3255000     384.5462      45.9707      45.9707    44.014248    93015.541    532.96357   -3791.6145     445.9667   -3345.6478 
 3260000    371.73898    45.957174    45.957174    44.001297    92933.458    999.18751    -3796.393    431.11388   -3365.2791 
 3265000    369.45197    45.941878    45.941878    43.986652    92840.696    884.54073   -3790.2132    428.46158   -3361.7516 
 3270000    373.53641    45.949748    45.949748    43.994187    92888.418   -69.488482   -3789.8012     433.1984   -3356.6028 
 3275000    367.13137    45.972786    45.972786    44.016244    93028.201   -167.25144   -3784.0672    425.77033   -3358.2969 
 3280000    369.54624    45.924762    45.924762    43.970264    92736.971   -223.04039   -3791.8763    428.57091   -3363.3054 
 3285000    373.73325    45.929561    45.929561    43.974859    92766.046    568.92678   -3794.7133    433.42667   -3361.2866 
 3290000    374.05545     45.91006     45.91006    43.956188    92647.933   -372.40675   -3793.3756    433.80034   -3359.5753 
 3295000    372.08127    45.895581    45.895581    43.942325    92560.305   -527.44238   -3791.4486    431.51085   -3359.9378 
 3300000    373.85954    45.918791    45.918791    43.964548    92700.806    518.05804   -3789.6034    433.57314   -3356.0303 
 3305000    374.27109    45.990523    45.990523    44.033227    93135.918    26.039432   -3793.9512    434.05042   -3359.9008 
 3310000    368.22246    45.950017    45.950017    43.994444    92890.048    1680.5715   -3795.7691     427.0357   -3368.7334 
 3315000    377.04467    45.925707    45.925707     43.97117    92742.698    556.13792   -3792.3526    437.26701   -3355.0856 
 3320000    369.87429    45.944865    45.944865    43.989512    92858.806   -829.26982   -3793.1159    428.95136   -3364.1645 
 3325000    375.86543    45.952302    45.952302    43.996632    92903.907    517.56447      -3787.8    435.89942   -3351.9006 
 3330000     373.2192    45.990977    45.990977    44.033661    93138.677    1301.3753   -3790.4532    432.83053   -3357.6227 
 3335000    368.99082    45.955992    45.955992    44.000166    92926.293    384.91054   -3790.7753    427.92678   -3362.8485 
 3340000    371.64086    45.936849    45.936849    43.981837    92810.212    288.01663   -3787.0467    431.00009   -3356.0466 
 3345000    371.15498     45.91238     45.91238    43.958409    92661.981    1589.4876   -3791.4271     430.4366   -3360.9905 
 3350000    370.31261     45.95574     45.95574    43.999924    92924.763    132.93204   -3787.7689    429.45968   -3358.3092 
 3355000    364.36163    45.997908    45.997908    44.040298    93180.796   -85.535666   -3788.9212    422.55821    -3366.363 
 3360000    375.83502    45.971525    45.971525    44.015037    93020.547     552.0166   -3792.6828    435.86415   -3356.8187 
 3365000     376.3797    45.895245    45.895245    43.942004    92558.272     966.1896   -3793.8712    436.49582   -3357.3754 
 3370000     372.4215    45.995532    45.995532    44.038023    93166.357   -1287.1411   -3796.6608    431.90541   -3364.7554 
 3375000    373.95625    45.938695    45.938695    43.983605    92821.405   -597.88582   -3800.2292     433.6853   -3366.5439 
 3380000    372.90672    45.937849    45.937849    43.982795    92816.276    559.54813   -3789.9189    432.46813   -3357.4508 
 3385000    373.98013    45.948091    45.948091      43.9926    92878.367   -358.00433   -3790.2842    433.71299   -3356.5712 
 3390000     374.9565    45.921247    45.921247    43.966899    92715.677   -603.75965   -3789.0249    434.84531   -3354.1796 
 3395000     373.2098    45.867084    45.867084    43.915042        92388    1918.3421   -3796.8794    432.81963   -3364.0597 
 3400000    368.54809    45.946491    45.946491    43.991069    92868.667   -1304.7229   -3797.1474    427.41334   -3369.7341 
 3405000    372.92419    45.930905    45.930905    43.976146     92774.19   -11.390703   -3799.8011     432.4884   -3367.3127 
 3410000    373.01263    45.946763    45.946763     43.99133    92870.319    578.63293   -3794.9462    432.59096   -3362.3552 
 3415000    372.46904    45.950561    45.950561    43.994966    92893.348   -187.14564    -3794.228    431.96054   -3362.2675 
 3420000    372.44156    45.903905    45.903905    43.950295    92610.676      811.913   -3790.8266    431.92868   -3358.8979 
 3425000    375.56664    45.961782    45.961782    44.005709     92961.42   -332.78581   -3793.9479    435.55291    -3358.395 
 3430000    377.63935    45.900537    45.900537    43.947071    92590.296    423.64357   -3800.3415    437.95668   -3362.3848 
 3435000    371.59245    45.944117    45.944117    43.988796    92854.271    163.04149   -3798.5138    430.94395   -3367.5699 
 3440000    368.60193    46.011255    46.011255    44.053076     93261.93    57.951221   -3790.9803    427.47578   -3363.5045 
 3445000    370.06678    45.920379    45.920379    43.966068    92710.423    627.45903   -3798.1335    429.17459    -3368.959 
 3450000    373.66264    45.944204    45.944204    43.988879      92854.8    18.746845   -3794.4914    433.34479   -3361.1466 
 3455000    369.24008    45.963088    45.963088     44.00696    92969.344    61.691514    -3794.841    428.21585   -3366.6251 
 3460000    375.87741    45.933514    45.933514    43.978644    92789.998    212.27255   -3793.1875    435.91331   -3357.2742 
 3465000    372.72708     45.94955     45.94955    43.993997    92887.214    484.32488   -3800.2598    432.25981        -3368 
 3470000    372.87966    45.952655    45.952655     43.99697    92906.047   -97.343336   -3793.1371    432.43675   -3360.7004 
 3475000    368.99482    45.978263    45.978263    44.021488    93061.455   -1078.9533   -3788.8322    427.93142   -3360.9008 
 3480000      369.137    45.878484    45.878484    43.925956      92456.9    893.85598   -3800.3748    428.09631   -3372.2785 
 3485000    373.44558    45.921615    45.921615    43.967252    92717.909    589.28179   -3791.7128    433.09306   -3358.6197 
 3490000    372.16988    45.933066    45.933066    43.978215    92787.286    315.54024   -3797.9498    431.61361   -3366.3362 
 3495000    377.95258    45.955382    45.955382    43.999581    92922.588    1033.5933   -3791.0243    438.31993   -3352.7043 
 3500000    369.41476    45.965435    45.965435    44.009207    92983.585    305.41402   -3797.8578    428.41843   -3369.4394 
 3505000    368.69632    45.932207    45.932207    43.977392    92782.078   -443.67522   -3791.3554    427.58524   -3363.7702 
 3510000    369.08085    45.967347    45.967347    44.011037    92995.189   -896.04914   -3795.8463    428.03119   -3367.8151 
 3515000    372.54662    45.954261    45.954261    43.998508    92915.789   -430.66982   -3796.1601    432.05052   -3364.1096 
 3520000    372.47872    45.904786    45.904786    43.951139    92616.011   -164.70975    -3797.523    431.97178   -3365.5512 
 3525000    370.29278    45.882246    45.882246    43.929558    92479.648    637.49932   -3796.2004    429.43669   -3366.7637 
 3530000    373.24128    45.968769    45.968769    44.012399    93003.821     -84.6259    -3802.463    432.85613   -3369.6069 
 3535000    370.06541    45.911596    45.911596    43.957659    92657.237     1232.877   -3802.0221    429.17301   -3372.8491 
 3540000     377.0205    45.928126    45.928126    43.973485    92757.351    59.835331   -3795.2716    437.23898   -3358.0327 
 3545000    373.14306    45.946431    45.946431    43.991012    92868.304    523.92496   -3791.7306    432.74222   -3358.9884 
 3550000     374.9457    45.964841    45.964841    44.008638    92979.983   -474.71897   -3796.1105    434.83278   -3361.2777 
 3555000    372.84491    45.951179    45.951179    43.995558    92897.099    914.93972   -3798.7306    432.39645   -3366.3341 
 3560000    372.48123    45.942631    45.942631    43.987373    92845.261    -506.9745   -3795.2223    431.97469   -3363.2476 
 3565000      374.556    45.934769    45.934769    43.979845    92797.603   -542.62018   -3797.4873    434.38084   -3363.1065 
 3570000    374.65172    45.951635    45.951635    43.995994    92899.865    210.43587    -3788.114    434.49185   -3353.6221 
 3575000    374.02097     45.93592     45.93592    43.980948    92804.584      688.844   -3794.5918    433.76036   -3360.8315 
 3580000    376.59222    45.936747    45.936747     43.98174    92809.595   -550.63713   -3800.8535    436.74229   -3364.1112 
 3585000    377.26394    45.975496    45.975496     44.01884    93044.657   -887.20238   -3789.7458     437.5213   -3352.2245 
 3590000    369.80378    45.936532    45.936532    43.981534    92808.293    74.169903   -3792.2102    428.86959   -3363.3407 
 3595000    371.87297    45.887777    45.887777    43.934853    92513.095    1313.4692   -3796.6447    431.26927   -3365.3755 
 3600000    375.42416    45.933123    45.933123     43.97827    92787.632    1774.9667   -3792.7985    435.38766   -3357.4109 
 3605000    378.43492     45.93464     45.93464    43.979722    92796.825    -284.0083   -3787.5175    438.87931   -3348.6382 
 3610000    371.75898    45.923542    45.923542    43.969097    92729.583   -412.03251    -3798.447    431.13707     -3367.31 
 3615000    373.37456    45.913755    45.913755    43.959726    92670.309   -5.4540198   -3791.1057     433.0107    -3358.095 
 3620000    371.55894    45.912328    45.912328     43.95836    92661.666    52.753694   -3791.7253    430.90508   -3360.8202 
 3625000    375.44776    45.905542    45.905542    43.951863    92620.588    586.03028   -3792.3791    435.41504   -3356.9641 
 3630000    372.73228    45.952607    45.952607    43.996925     92905.76   -1224.2278   -3794.1599    432.26584    -3361.894 
 3635000    367.82647    45.848461    45.848461    43.897211    92275.509    929.89463   -3801.5439    426.57645   -3374.9674 
 3640000    369.87425    45.897477    45.897477    43.944141     92571.78   -469.43174   -3801.1263    428.95131    -3372.175 
 3645000    366.45749    45.953389    45.953389    43.997673      92910.5    76.026667   -3794.6551    424.98882   -3369.6663 
 3650000     371.4208     45.85187     45.85187    43.900475    92296.095    1528.9222    -3792.247    430.74489   -3361.5021 
 3655000    370.01623    45.896271    45.896271    43.942986    92564.479   -371.89955   -3794.1098    429.11597   -3364.9938 
 3660000    372.27395    45.925227    45.925227     43.97071    92739.791   -1877.1115   -3803.2397     431.7343   -3371.5054 
 3665000    366.65362    45.906247    45.906247    43.952537    92624.852   -396.71159   -3796.5295    425.21628   -3371.3133 
 3670000    377.01776     45.91337     45.91337    43.959357    92667.976   -131.20384   -3797.4567    437.23579   -3360.2209 
 3675000    373.78673    45.937103    45.937103    43.982081    92811.755   -671.21772   -3798.8762     433.4887   -3365.3875 
 3680000    375.15878    45.869118    45.869118    43.916989    92400.291    969.15187   -3799.0733    435.07989   -3363.9934 
 3685000    373.35238    45.971496    45.971496     44.01501    93020.374    568.42547   -3795.6544    432.98497   -3362.6694 
 3690000    374.73961    45.930269    45.930269    43.975537    92770.335   -5.3160979   -3790.0019    434.59377   -3355.4081 
 3695000    368.81772    45.957672    45.957672    44.001774     92936.48   -727.41441   -3795.7109    427.72603   -3367.9848 
 3700000    374.16047    45.915893    45.915893    43.961773    92683.256     122.1269   -3794.8493    433.92214   -3360.9271 
 3705000    372.27132     45.86611     45.86611    43.914108    92382.111    331.02994    -3797.946    431.73124   -3366.2148 
 3710000    371.59605    45.888751    45.888751    43.935786    92518.988    457.29566   -3802.1914    430.94812   -3371.2433 
 3715000    374.51256    45.904278    45.904278    43.950652    92612.935   -166.05484   -3794.2546    434.33046   -3359.9241 
 3720000    377.82653    45.902389    45.902389    43.948844    92601.503   -71.180787    -3795.841    438.17375   -3357.6673 
 3725000      373.838    45.857138    45.857138    43.905518    92327.907    171.92022   -3795.3495    433.54817   -3361.8013 
 3730000    370.27105    45.929167    45.929167    43.974482    92763.658   -741.46708   -3803.3035    429.41149    -3373.892 
 3735000    376.84938    45.866388    45.866388    43.914375     92383.79    69.410295    -3800.876    437.04053   -3363.8355 
 3740000    374.65173    45.909894    45.909894    43.956029     92646.93    553.54088   -3796.0111    434.49186   -3361.5193 
 3745000    374.04219    45.909986    45.909986    43.956118    92647.489    200.62206   -3798.1073    433.78497   -3364.3223 
 3750000    375.65546    45.900299    45.900299    43.946842    92588.851    217.49292   -3803.3166     435.6559   -3367.6607 
 3755000    375.47776    45.842779    45.842779    43.891771    92241.206   -1525.2715   -3796.4574    435.44982   -3361.0076 
 3760000    369.34153    45.902399    45.902399    43.948853    92601.563    986.16186   -3795.5252    428.33351   -3367.1917 
 3765000    371.97509    45.872908    45.872908    43.920618    92423.198    1208.7931   -3792.9789     431.3877   -3361.5912 
 3770000    372.00161    45.911748    45.911748    43.957804    92658.152    447.28656    -3798.176    431.41845   -3366.7575 
 3775000    374.39652    45.931159    45.931159    43.976389    92775.727    336.22461   -3796.4155    434.19589   -3362.2196 
 3780000    373.38126    45.905129    45.905129    43.951467    92618.085   -267.69315   -3796.7791    433.01847   -3363.7606 
 3785000    370.05354    45.945225    45.945225    43.989856    92860.989   -314.03497   -3806.5502    429.15924    -3377.391 
 3790000    365.62212    45.926685    45.926685    43.972106    92748.622     1367.224   -3801.5662    424.02002   -3377.5462 
 3795000     374.5546    45.937552    45.937552     43.98251    92814.474   -454.35924   -3794.6908    434.37922   -3360.3116 
 3800000    379.28366    45.858041    45.858041    43.906383    92333.364   -742.40968   -3799.0375    439.86362   -3359.1738 
 3805000     378.5184    45.901936    45.901936     43.94841    92598.761    927.48387   -3800.5381    438.97613    -3361.562 
 3810000    375.16861    45.860506    45.860506    43.908744    92348.257    1134.3546   -3798.9111    435.09129   -3363.8198 
 3815000    372.25672    45.908687    45.908687    43.954874    92639.623   -486.04819   -3795.4161    431.71431   -3363.7018 
 3820000    378.69929    45.979697    45.979697    44.022862    93070.163   -1600.9135   -3795.6124    439.18591   -3356.4265 
 3825000      373.506    45.951049    45.951049    43.995433     92896.31    246.86103   -3792.1625    433.16314   -3358.9994 
 3830000     374.1882    45.961991    45.961991    44.005909    92962.687   -1661.6885   -3792.5099     433.9543   -3358.5556 
 3835000    378.22998    45.876161    45.876161    43.923732    92442.858    395.80512   -3794.5713    438.64163   -3355.9297 
 3840000    378.39563    45.955055    45.955055    43.999268    92920.605   -1231.8468   -3794.8382    438.83374   -3356.0045 
 3845000    373.36947    45.953098    45.953098    43.997395    92908.738    139.96248   -3794.1718    433.00479   -3361.1671 
 3850000    371.50146    45.957187    45.957187     44.00131    92933.542   -894.90585   -3794.7979    430.83843   -3363.9594 
 3855000    368.80778    45.905922    45.905922    43.952227    92622.887   -1622.6727   -3799.1594    427.71451   -3371.4449 
 3860000    367.05759    45.860385    45.860385    43.908628    92347.525   -339.49033   -3799.6957    425.68477   -3374.0109 
 3865000    371.82942    45.868166    45.868166    43.916077    92394.535   -105.42588   -3796.7483    431.21876   -3365.5296 
 3870000    370.21368    45.912541    45.912541    43.958563    92662.954   -1325.4553   -3801.6586    429.34495   -3372.3136 
 3875000    370.39566    45.938557    45.938557    43.983472    92820.566   -300.32326   -3797.9339    429.55601   -3368.3779 
 3880000    370.12913    45.882364    45.882364    43.929671    92480.359    1151.0833   -3802.2932     429.2469   -3373.0463 
 3885000    371.98267    45.899475    45.899475    43.946054     92583.87    507.75587   -3798.0427    431.39649   -3366.6462 
 3890000     370.6305    45.864284    45.864284    43.912361     92371.08    307.79099   -3804.1692    429.82835   -3374.3408 
 3895000    370.56612    45.874865    45.874865    43.922491    92435.026   -589.43107   -3804.0058    429.75369   -3374.2521 
 3900000    377.11633    45.900446    45.900446    43.946983    92589.743   -581.07308   -3805.9745    437.35012   -3368.6244 
 3905000    372.35494    45.891706    45.891706    43.938615    92536.862    -105.7984   -3798.8006    431.82822   -3366.9724 
 3910000    371.13366    45.852693    45.852693    43.901263    92301.064   -172.64493   -3802.0446    430.41188   -3371.6327 
 3915000    370.29693    45.877097    45.877097    43.924628    92448.516    793.63772   -3793.5031    429.44151   -3364.0616 
 3920000    370.93034    45.873232    45.873232    43.920927    92425.151   -190.16354   -3804.4257    430.17608   -3374.2496 
 3925000    375.27988    45.888523    45.888523    43.935567    92517.607    -863.0087   -3800.8926    435.22034   -3365.6722 
 3930000    372.07709    45.902188    45.902188    43.948651    92600.286   -835.79882   -3797.0771    431.50599   -3365.5711 
 3935000    370.57311    45.940215    45.940215     43.98506    92830.617   -2038.1477   -3791.4656     429.7618   -3361.7038 
 3940000    373.12264    45.845227    45.845227    43.894114    92255.983     1375.478   -3804.3289    432.71854   -3371.6103 
 3945000    373.48499    45.906035    45.906035    43.952334    92623.568    447.41381   -3803.8448    433.13876    -3370.706 
 3950000    368.42357    45.891789    45.891789    43.938695    92537.367    272.58202    -3799.518    427.26893   -3372.2491 
 3955000     371.1451    45.877543    45.877543    43.925055    92451.212    1364.9975   -3794.6904    430.42514   -3364.2653 
 3960000    376.28827    45.912558    45.912558     43.95858    92663.059   -253.93757   -3796.6685    436.38979   -3360.2787 
 3965000    372.38909    45.897651    45.897651    43.944307    92572.828   -244.15038   -3797.7994    431.86783   -3365.9316 
 3970000    372.20301    45.887768    45.887768    43.934845    92513.041   -265.14132   -3797.8552    431.65203   -3366.2032 
 3975000    375.02188    45.885786    45.885786    43.932948    92501.058   -145.66822   -3806.0736    434.92113   -3371.1524 
 3980000    366.47046    45.911467    45.911467    43.957535    92656.452    1490.1491   -3796.8122    425.00386   -3371.8084 
 3985000    371.76449    45.978706    45.978706    44.021913    93064.147   -827.68003   -3792.3871    431.14346   -3361.2436 
 3990000    373.80344    45.915483    45.915483    43.961381    92680.773    971.69311   -3804.7355    433.50808   -3371.2274 
 3995000    377.03853    45.903747    45.903747    43.950144     92609.72    677.36799   -3798.7339    437.25989    -3361.474 
 4000000    372.77716    45.917013    45.917013    43.962845    92690.034     114.4778   -3799.1451    432.31789   -3366.8272 
Loop time of 32487.7 on 24 procs for 2000000 steps with 8973 atoms

Performance: 2.659 ns/day, 9.024 hours/ns, 61.562 timesteps/s
99.9% CPU use with 24 MPI tasks x 1 OpenMP threads

MPI task timing breakdown:
Section |  min time  |  avg time  |  max time  |%varavg| %total
---------------------------------------------------------------
Pair    | 22676      | 27521      | 30188      |1022.2 | 84.71
Bond    | 104.47     | 109.17     | 117.65     |  30.1 |  0.34
Kspace  | 1129.7     | 3797.8     | 8638       |2752.0 | 11.69
Neigh   | 193.74     | 194.54     | 195.53     |   3.9 |  0.60
Comm    | 635.87     | 646.01     | 655.48     |  20.1 |  1.99
Output  | 0.72753    | 0.73309    | 0.85406    |   2.9 |  0.00
Modify  | 139.81     | 156.4      | 186        | 117.7 |  0.48
Other   |            | 62.05      |            |       |  0.19

Nlocal:    373.875 ave 392 max 343 min
Histogram: 1 0 0 1 1 8 7 1 4 1
Nghost:    11785.8 ave 11851 max 11731 min
Histogram: 2 4 3 3 0 3 4 1 1 3
Neighs:    372248 ave 404236 max 320105 min
Histogram: 1 0 1 2 3 6 3 0 4 4

Total # of neighbors = 8933949
Ave neighs/atom = 995.648
Ave special neighs/atom = 2.45938
Neighbor list builds = 18312
Dangerous builds = 0

undump		1
unfix		1

fix	2	all npt	temp	${T2}	${T2}	0.1	iso	${Pre}	${Pre}	0.5
fix	2	all npt	temp	373	${T2}	0.1	iso	${Pre}	${Pre}	0.5
fix	2	all npt	temp	373	373	0.1	iso	${Pre}	${Pre}	0.5
fix	2	all npt	temp	373	373	0.1	iso	1	${Pre}	0.5
fix	2	all npt	temp	373	373	0.1	iso	1	1	0.5

compute	1	all	rdf	250	1	1	1	2	2	2	4	1	4	2
fix	rdf	all	ave/time	100	10000	1000000	c_1[*]	file grcold.txt	mode	vector

run		1000000
PPPM initialization ...
  using 12-bit tables for long-range coulomb (../kspace.cpp:332)
  G vector (1/distance) = 0.189409
  grid = 20 20 20
  stencil order = 5
  estimated absolute RMS force accuracy = 0.000658507
  estimated relative force accuracy = 4.57308e-05
  using single precision MKL FFT
  3d grid and FFT values/proc = 1950 400
Neighbor list info ...
  update every 1 steps, delay 10 steps, check yes
  max neighbors/atom: 2000, page size: 100000
  master list distance cutoff = 17
  ghost atom cutoff = 17
  binsize = 8.5, bins = 6 6 6
  2 neighbor lists, perpetual/occasional/extra = 1 1 0
  (1) pair buck/coul/long, perpetual
      attributes: half, newton on
      pair build: half/bin/newton
      stencil: half/bin/3d/newton
      bin: standard
  (2) compute rdf, occasional, copy from (1)
      attributes: half, newton on
      pair build: copy
      stencil: none
      bin: none
Per MPI rank memory allocation (min/avg/max) = 12.37 | 12.44 | 12.77 Mbytes
Step Temp Lx Ly Lz Volume Press PotEng KinEng TotEng 
 4000000    372.77716    45.917013    45.917013    43.962845    92690.034    113.67182   -3799.1396    432.31789   -3366.8217 
 4005000    373.20358    45.920444    45.920444    43.966131    92710.817   -916.51179   -3799.9676    432.81241   -3367.1552 
 4010000    370.55741    45.928776    45.928776    43.974107    92761.287   -781.89933    -3793.952    429.74358   -3364.2085 
 4015000    371.66332    45.877206    45.877206    43.924732    92449.174    418.85653   -3801.5164    431.02614   -3370.4902 
 4020000    371.73707    45.917321    45.917321     43.96314    92691.902   -325.50609   -3806.6858    431.11166   -3375.5741 
 4025000    373.19692    45.925652    45.925652    43.971117    92742.364   -407.46491   -3803.6447    432.80469     -3370.84 
 4030000    371.56155    45.938722    45.938722     43.98363    92821.563   -689.16543   -3789.1683    430.90811   -3358.2602 
 4035000    375.28372    45.937118    45.937118    43.982094    92811.842   -343.52393   -3789.8248    435.22479      -3354.6 
 4040000    377.37875    45.876066    45.876066    43.923641    92442.283   -385.09574   -3805.9676    437.65444   -3368.3131 
 4045000    375.55457    45.864636    45.864636    43.912697    92373.205   -558.00392   -3797.6386    435.53891   -3362.0997 
 4050000     372.2515    45.884365    45.884365    43.931587    92492.463    564.49722   -3801.2956    431.70826   -3369.5873 
 4055000    373.65935    45.859896    45.859896    43.908159    92344.567    1043.3677     -3801.89    433.34098   -3368.5491 
 4060000    375.71599    45.898048    45.898048    43.944687     92575.23    254.92848   -3793.2631    435.72611   -3357.5369 
 4065000    368.39772    45.864378    45.864378     43.91245    92371.646      800.178   -3800.6956    427.23895   -3373.4566 
 4070000    369.03734    45.867432    45.867432    43.915375    92390.104   -191.22542   -3799.6267    427.98073    -3371.646 
 4075000    372.36425      45.8673      45.8673    43.915248      92389.3    633.40263   -3803.5031    431.83902    -3371.664 
 4080000    373.80282    45.877226    45.877226    43.924751    92449.295    487.36964   -3798.1153    433.50736   -3364.6079 
 4085000    372.62684    45.860128    45.860128    43.908382    92345.973    1244.9394   -3801.4153    432.14355   -3369.2717 
 4090000    370.51352    45.908883    45.908883    43.955061     92640.81    -284.7166   -3801.0775    429.69269   -3371.3848 
 4095000    375.40253    45.915355    45.915355    43.961258    92679.996   -848.06243   -3800.6477    435.36259   -3365.2851 
 4100000    371.56471    45.892839    45.892839    43.939701    92543.719   -1390.4952   -3799.3888    430.91178   -3368.4771 
 4105000    370.25909    45.881705    45.881705     43.92904    92476.378   -351.85725   -3806.0813    429.39762   -3376.6837 
 4110000    372.46316    45.846328    45.846328    43.895169    92262.634    577.30153   -3802.3333    431.95372   -3370.3796 
 4115000    373.63272    45.893529    45.893529     43.94036    92547.888    1196.1809   -3792.0527     433.3101   -3358.7426 
 4120000    372.83701     45.84662     45.84662    43.895448    92264.394    402.10409   -3805.2379    432.38729   -3372.8506 
 4125000    374.49605    45.831816    45.831816    43.881274    92175.044    194.09318    -3799.114    434.31131   -3364.8027 
 4130000    374.65842     45.89293     45.89293    43.939787    92544.268   -888.11277    -3797.907    434.49962   -3363.4074 
 4135000    371.07155     45.89196     45.89196    43.938859    92538.401   -285.10222   -3797.1205    430.33985   -3366.7807 
 4140000    375.86655    45.855016    45.855016    43.903486     92315.09   -345.45665   -3796.6285    435.90072   -3360.7278 
 4145000    376.44974    45.815917    45.815917    43.866052    92079.151    1322.8859   -3807.9813    436.57706   -3371.4043 
 4150000    370.09063    45.874809    45.874809    43.922437    92434.684    829.39566   -3794.4132    429.20225   -3365.2109 
 4155000    372.91171    45.868007    45.868007    43.915925    92393.574    144.90833    -3801.642    432.47392   -3369.1681 
 4160000    377.40898    45.866985    45.866985    43.914946      92387.4   -35.601419   -3801.1626     437.6895   -3363.4731 
 4165000    366.85406     45.83238     45.83238    43.881814    92178.449    414.21483   -3801.2776    425.44873   -3375.8289 
 4170000    374.71142    45.835532    45.835532    43.884832    92197.468    358.66493    -3805.571    434.56108   -3371.0099 
 4175000    375.21296    45.881111    45.881111    43.928471    92472.786    583.96715    -3802.554    435.14273   -3367.4113 
 4180000    383.75789    45.903728    45.903728    43.950126    92609.608   -431.63991   -3797.7954    445.05248   -3352.7429 
 4185000    372.70319    45.902582    45.902582    43.949029    92602.672   -439.84534   -3800.5281     432.2321    -3368.296 
 4190000    372.79378    45.864878    45.864878    43.912929    92374.667   -534.41439   -3798.3712    432.33715    -3366.034 
 4195000    371.85432    45.873353    45.873353    43.921044    92425.887    790.42385   -3794.8376    431.24764     -3363.59 
 4200000    371.55202     45.87747     45.87747    43.924985    92450.774   -293.76952   -3803.8271    430.89706   -3372.9301 
 4205000    375.63103    45.892665    45.892665    43.939534    92542.665   -1153.2375   -3800.5384    435.62758   -3364.9108 
 4210000    369.67615    45.837701    45.837701    43.886909    92210.557    776.28269   -3805.7099    428.72157   -3376.9883 
 4215000    372.62255    45.866359    45.866359    43.914347    92383.619   -1735.6344   -3799.3086    432.13858     -3367.17 
 4220000    374.18962    45.865917    45.865917    43.913924    92380.949   -969.15766   -3795.3999    433.95594   -3361.4439 
 4225000     373.7517    45.935717    45.935717    43.980753    92803.349    -1585.116   -3792.3934    433.44807   -3358.9453 
 4230000    374.25883    45.839809    45.839809    43.888927    92223.277   -324.98751   -3798.8132     434.0362    -3364.777 
 4235000    373.30954    45.914834    45.914834    43.960759    92676.842   -1093.4767   -3800.0812     432.9353   -3367.1459 
 4240000    369.56123    45.806247    45.806247    43.856793    92020.859    674.22811   -3802.7473     428.5883    -3374.159 
 4245000    371.07458    45.872919    45.872919    43.920628    92423.261   -626.47892   -3799.2282    430.34337   -3368.8848 
 4250000    375.07127    45.831554    45.831554    43.881023    92173.462    1109.1384   -3801.6876    434.97842   -3366.7092 
 4255000    369.73215    45.873297    45.873297     43.92099    92425.548    -1826.401   -3803.7373    428.78652   -3374.9508 
 4260000    375.85844    45.871874    45.871874    43.919628    92416.947    363.61678   -3803.5171    435.89131   -3367.6257 
 4265000    377.07028    45.837394    45.837394    43.886615    92208.705    279.72955   -3802.0775    437.29671   -3364.7808 
 4270000    374.47598    45.913739    45.913739    43.959711    92670.213    90.549256   -3802.7139    434.28804   -3368.4259 
 4275000    367.52479     45.80983     45.80983    43.860224    92042.455    664.04639   -3801.3328    426.22659   -3375.1062 
 4280000    376.58025    45.925547    45.925547    43.971017    92741.729   -1282.5393   -3801.9035    436.72841   -3365.1751 
 4285000    370.28818    45.862368    45.862368    43.910526    92359.502    626.06591    -3801.547    429.43136   -3372.1156 
 4290000    372.87009    45.825636    45.825636    43.875357    92137.763    289.25605   -3801.2829    432.42565   -3368.8572 
 4295000    370.94574    45.829877    45.829877    43.879417    92163.344    211.10466   -3801.1681    430.19394   -3370.9741 
 4300000    375.27209    45.907059    45.907059    43.953315    92629.766   -998.71744   -3804.3248    435.21131   -3369.1135 
 4305000    375.18167    45.866671    45.866671    43.914646    92385.501    170.11737   -3800.6844    435.10645   -3365.5779 
 4310000    370.88855    45.837909    45.837909    43.887108    92211.814    -284.1778   -3798.2566    430.12762    -3368.129 
 4315000    371.64525    45.863223    45.863223    43.911344    92364.667    675.94734   -3798.7843    431.00518   -3367.7791 
 4320000    375.70993    45.869193    45.869193     43.91706    92400.743   -74.217774   -3807.5559    435.71908   -3371.8369 
 4325000    371.36768    45.794778    45.794778    43.845812    91951.756    524.00594   -3807.1291    430.68327   -3376.4458 
 4330000    370.97581    45.857481    45.857481    43.905847    92329.981   -304.25604   -3799.2687    430.22881   -3369.0399 
 4335000    376.57731     45.92941     45.92941    43.974715    92765.131     219.8575    -3796.441      436.725    -3359.716 
 4340000    375.67744    45.894046    45.894046    43.940855    92551.017   -429.75494   -3800.6826     435.6814   -3365.0012 
 4345000     374.8449    45.853968    45.853968    43.902484    92308.764    799.52206   -3800.8335    434.71588   -3366.1176 
 4350000     371.2531    45.836216    45.836216    43.885487    92201.593    1763.8287   -3803.9731    430.55039   -3373.4227 
 4355000     376.8499    45.899255    45.899255    43.945843    92582.534    833.85209   -3793.2539    437.04113   -3356.2128 
 4360000    369.26075    45.868587    45.868587     43.91648     92397.08    23.637818   -3794.4036    428.23983   -3366.1637 
 4365000    369.88957     45.88477     45.88477    43.931975    92494.911    -1632.225   -3800.3954    428.96908   -3371.4263 
 4370000    374.36959    45.849495    45.849495    43.898201    92281.755    646.19112   -3805.8759    434.16466   -3371.7112 
 4375000    369.07951    45.821063    45.821063    43.870979    92110.183   -169.76927    -3804.898    428.02963   -3376.8684 
 4380000    372.62485    45.907704    45.907704    43.953932    92633.671   -1312.9633   -3797.1459    432.14125   -3365.0047 
 4385000     370.8879    45.900157    45.900157    43.946707    92587.994   -1096.5878   -3802.5509    430.12687    -3372.424 
 4390000    374.56791    45.902987    45.902987    43.949416    92605.121   -877.36932   -3798.6594    434.39465   -3364.2647 
 4395000    370.12737    45.844866    45.844866    43.893769    92253.806   -435.18714   -3803.9599    429.24486   -3374.7151 
 4400000    373.88243    45.861083    45.861083    43.909296    92351.743     125.7558   -3804.9159    433.59969   -3371.3162 
 4405000     366.8805    45.855556    45.855556    43.904004    92318.356    381.82598   -3798.1674    425.47939    -3372.688 
 4410000     378.7596    45.856551    45.856551    43.904956    92324.362    268.30014   -3804.3718    439.25585   -3365.1159 
 4415000    375.64653    45.889176    45.889176    43.936193    92521.559    1008.6583   -3807.5707    435.64555   -3371.9251 
 4420000    367.33165    45.862655    45.862655      43.9108    92361.234     332.2353   -3808.9336     426.0026    -3382.931 
 4425000    375.74478    45.865258    45.865258    43.913293    92376.963    1090.6133   -3810.3962     435.7595   -3374.6367 
 4430000    377.05238    45.883045    45.883045    43.930323     92484.48    1069.8418   -3801.2392    437.27595   -3363.9633 
 4435000    377.51009    45.856133    45.856133    43.904556    92321.837   -212.11838   -3802.4045    437.80677   -3364.5977 
 4440000    371.97808    45.888504    45.888504    43.935549    92517.492    324.78549   -3804.3747    431.39118   -3372.9836 
 4445000     367.3842    45.826975    45.826975    43.876639     92145.84   -1034.9938   -3804.1988    426.06355   -3378.1353 
 4450000    369.77931    45.923274    45.923274     43.96884    92727.956   -2238.3579   -3801.9992    428.84121    -3373.158 
 4455000     372.9224    45.866705    45.866705    43.914678    92385.707    689.49114   -3806.3862    432.48632   -3373.8999 
 4460000    376.12936    45.833978    45.833978    43.883344    92188.088    -1161.507   -3807.8203     436.2055   -3371.6148 
 4465000     376.4237    45.840191    45.840191    43.889293    92225.583    -465.6846   -3804.5768    436.54685   -3368.0299 
 4470000    369.74563    45.923654    45.923654    43.969204    92730.259    1130.1368   -3797.4247    428.80215   -3368.6226 
 4475000    371.74634    45.856597    45.856597    43.905001    92324.642    680.41046     -3805.54    431.12242   -3374.4176 
 4480000    373.87065    45.866583    45.866583    43.914561    92384.969   -46.936633   -3810.1057    433.58603   -3376.5197 
 4485000    370.73949    45.867086    45.867086    43.915044    92388.013   -226.56875   -3803.9243    429.95475   -3373.9696 
 4490000    373.83851    45.865752    45.865752    43.913766     92379.95   -979.88587   -3798.9744    433.54876   -3365.4256 
 4495000    374.98885    45.869146    45.869146    43.917015    92400.458    495.89767   -3804.8596    434.88283   -3369.9768 
 4500000    370.25013      45.8755      45.8755    43.923099    92438.863    118.50141   -3799.7059    429.38723   -3370.3187 
 4505000    372.69964    45.887072    45.887072    43.934179    92508.835   -726.98212   -3798.0932    432.22798   -3365.8653 
 4510000    372.73298    45.945367    45.945367    43.989992    92861.849   -523.90398   -3795.8456    432.26664    -3363.579 
 4515000    375.82105    45.868472    45.868472     43.91637    92396.384    583.07773   -3798.8787    435.84794   -3363.0307 
 4520000    376.82057     45.89347     45.89347    43.940304    92547.532    188.72791   -3805.5529    437.00711   -3368.5458 
 4525000    370.97044    45.846675    45.846675    43.895501    92264.728     389.1678   -3800.7928    430.22259   -3370.5702 
 4530000    371.57882    45.852661    45.852661    43.901232    92300.872    810.88194   -3803.0026    430.92814   -3372.0745 
 4535000    374.23493    45.881634    45.881634    43.928972     92475.95   -66.954455   -3801.5297    434.00849   -3367.5212 
 4540000    373.20148    45.850933    45.850933    43.899578    92290.437    437.64542   -3810.2542    432.80998   -3377.4442 
 4545000    378.69742    45.865547    45.865547     43.91357     92378.71    411.73293   -3799.7578    439.18374    -3360.574 
 4550000    372.63623    45.870925    45.870925    43.918719    92411.212   -1261.4264   -3803.4821    432.15445   -3371.3277 
 4555000    371.04973    45.848602    45.848602    43.897346    92276.359   -781.34257   -3795.7862    430.31454   -3365.4716 
 4560000    371.71957    45.897108    45.897108    43.943787    92569.544    -636.8941   -3799.8809    431.09137   -3368.7895 
 4565000     373.9883    45.861917    45.861917    43.910094    92356.779    173.34725   -3810.5599    433.72247   -3376.8374 
 4570000    368.72018     45.88053     45.88053    43.927915    92469.271   -7.8371284    -3806.731    427.61291   -3379.1181 
 4575000    373.45548    45.851595    45.851595    43.900211    92294.433    -65.03622   -3808.6472    433.10454   -3375.5426 
 4580000    377.50778     45.83192     45.83192    43.881373     92175.67    521.86806   -3802.5252    437.80408   -3364.7211 
 4585000    374.74825    45.942042    45.942042    43.986809     92841.69   -745.43447   -3801.2275     434.6038   -3366.6237 
 4590000    374.36024    45.842676    45.842676    43.891672    92240.584    317.62814   -3803.6594    434.15381   -3369.5056 
 4595000     368.9536    45.885369    45.885369    43.932548    92498.532   -1000.6585   -3805.9249    427.88361   -3378.0413 
 4600000    376.83045    45.875675    45.875675    43.923267    92439.922   -209.58328   -3804.0351    437.01857   -3367.0165 
 4605000    374.69008     45.85844     45.85844    43.906765    92335.772    599.35386   -3804.7846    434.53634   -3370.2483 
 4610000    378.92256    45.841606    45.841606    43.890647    92234.124    685.71945   -3805.7991    439.44484   -3366.3543 
 4615000    377.00152    45.917613    45.917613     43.96342    92693.669   -797.09314    -3803.038    437.21697   -3365.8211 
 4620000    374.15099    45.872978    45.872978    43.920684    92423.616     1733.351   -3807.5024    433.91114   -3373.5913 
 4625000    372.47693    45.913384    45.913384    43.959371    92668.063    -272.5793   -3805.7123     431.9697   -3373.7426 
 4630000    369.82237    45.868962    45.868962     43.91684    92399.349   -243.95615   -3800.6625    428.89114   -3371.7713 
 4635000    375.81538    45.854295    45.854295    43.902797    92310.741   -798.38111   -3800.8746    435.84137   -3365.0332 
 4640000    374.55654    45.881826    45.881826    43.929156    92477.109   -260.87513   -3806.8999    434.38146   -3372.5185 
 4645000      369.162    45.854234    45.854234    43.902738    92310.372    853.67421   -3797.6185     428.1253   -3369.4932 
 4650000     371.5568    45.841553    45.841553    43.890597    92233.804   -392.10962   -3806.6926     430.9026     -3375.79 
 4655000    375.04515     45.85489     45.85489    43.903366    92314.333    674.80494   -3802.1959    434.94812   -3367.2478 
 4660000    375.97649    45.875721    45.875721     43.92331    92440.197   -715.79272   -3803.8703    436.02822   -3367.8421 
 4665000    379.81613    45.818236    45.818236    43.868272    92093.137    21.384049   -3813.1931    440.48113    -3372.712 
 4670000    370.12257    45.836509    45.836509    43.885767    92203.361   -435.13081   -3805.7641    429.23929   -3376.5248 
 4675000     373.6868    45.860305    45.860305    43.908551    92347.039   -1801.6114   -3804.3611    433.37281   -3370.9883 
 4680000    373.49335    45.880371    45.880371    43.927763    92468.314   -782.99234   -3802.6192    433.14846   -3369.4708 
 4685000    373.38578    45.899611    45.899611    43.946184    92584.689     939.2511   -3791.6232    433.02371   -3358.5995 
 4690000     371.3449    45.935239    45.935239    43.980295    92800.453   -950.96226   -3804.0814    430.65685   -3373.4245 
 4695000     368.0303     45.93512     45.93512    43.980181    92799.732   -721.73245   -3800.0331    426.81284   -3373.2203 
 4700000    371.76268    45.894909    45.894909    43.941682    92556.242    145.85971   -3800.6614    431.14137     -3369.52 
 4705000    365.41398    45.876331    45.876331    43.923895    92443.889   -326.00061   -3801.4385    423.77865   -3377.6599 
 4710000    381.82722    45.914889    45.914889    43.960812    92677.173   -1219.1531   -3800.1689    442.81343   -3357.3555 
 4715000    373.15822    45.858354    45.858354    43.906683    92335.257    -578.2161   -3803.2815    432.75981   -3370.5217 
 4720000    375.00898    45.847799    45.847799    43.896577    92271.514    729.56308   -3801.6325    434.90617   -3366.7264 
 4725000    375.62267     45.86092     45.86092     43.90914    92350.758   -92.428625   -3804.2742    435.61788   -3368.6563 
 4730000    375.99441    45.860896    45.860896    43.909117    92350.613    635.81874   -3801.4444      436.049   -3365.3954 
 4735000    377.21581    45.884456    45.884456    43.931674    92493.011    427.71365   -3801.9215    437.46548    -3364.456 
 4740000    373.86146    45.804768    45.804768    43.855377    92011.947    1479.9197   -3802.6913    433.57537   -3369.1159 
 4745000     367.8404    45.879273    45.879273    43.926712    92461.673   -1416.0818   -3803.5127    426.59261   -3376.9201 
 4750000    374.74738    45.826212    45.826212    43.875909     92141.24   -453.52743   -3801.1054    434.60279   -3366.5026 
 4755000    370.48506    45.851859    45.851859    43.900464    92296.027    591.66147   -3803.7953    429.65968   -3374.1356 
 4760000    367.90711    45.861294    45.861294    43.909497    92353.013   -277.44333   -3806.2538    426.66998   -3379.5838 
 4765000     373.8846    45.904011    45.904011    43.950397    92611.321    690.27925   -3801.9616     433.6022   -3368.3594 
 4770000    379.30021    45.852164    45.852164    43.900756    92297.869    1541.2072   -3798.5015    439.88281   -3358.6187 
 4775000    369.42883    45.852144    45.852144    43.900737    92297.746   -1022.6123   -3806.6959    428.43475   -3378.2611 
 4780000    378.08835    45.890305    45.890305    43.937274    92528.391   -183.37494   -3810.8724    438.47739    -3372.395 
 4785000    374.48052    45.919518    45.919518    43.965244    92705.205    1261.8271   -3802.8488     434.2933   -3368.5555 
 4790000    372.57175    45.931877    45.931877    43.977076    92780.078   -692.95291   -3804.6487    432.07966   -3372.5691 
 4795000    366.04736    45.925513    45.925513    43.970984     92741.52   -137.49647   -3804.3788    424.51318   -3379.8656 
 4800000    373.74722     45.91482     45.91482    43.960745    92676.754   -403.90883   -3802.1063    433.44288   -3368.6634 
 4805000    369.35991    45.889969    45.889969    43.936952    92526.356    -938.0637   -3803.9391    428.35482   -3375.5843 
 4810000    373.29818    45.900202    45.900202     43.94675    92588.267    67.205506   -3803.1224    432.92212   -3370.2003 
 4815000    374.25425    45.874011    45.874011    43.921673    92429.863    1917.0952   -3803.5852    434.03089   -3369.5543 
 4820000    376.72977    45.887545    45.887545    43.934632    92511.696   -277.01074   -3803.0821    436.90181   -3366.1803 
 4825000    372.54772    45.879659    45.879659    43.927081    92464.007   -274.99149   -3799.8778     432.0518    -3367.826 
 4830000    371.96013    45.866033    45.866033    43.914035    92381.649    -720.7884   -3800.6774    431.37035    -3369.307 
 4835000    377.35274    45.885564    45.885564    43.932735    92499.714     58.27524   -3799.0997    437.62428   -3361.4755 
 4840000    367.19411    45.883623    45.883623    43.930876    92487.973   -511.27074   -3797.9453     425.8431   -3372.1022 
 4845000    375.87537    45.831184    45.831184     43.88067    92171.235   -1006.8002   -3804.2641    435.91095   -3368.3531 
 4850000    376.52639    45.951011    45.951011    43.995397    92896.078   -220.92428    -3800.821    436.66595   -3364.1551 
 4855000    377.10281    45.891672    45.891672    43.938583    92536.659    268.64097   -3808.4885    437.33443   -3371.1541 
 4860000    375.33695    45.883494    45.883494    43.930753    92487.196    648.41789   -3802.9006    435.28653   -3367.6141 
 4865000    372.39647    45.875789    45.875789    43.923376    92440.612    -1317.821   -3804.5815    431.87639   -3372.7051 
 4870000    369.97909    45.857518    45.857518    43.905882    92330.204    26.844665   -3805.4311     429.0729   -3376.3582 
 4875000    372.63448    45.912465    45.912465    43.958491    92662.495    1062.0212   -3803.2301    432.15241   -3371.0777 
 4880000     367.8479    45.896199    45.896199    43.942917    92564.043   -1095.0055   -3804.8095    426.60131   -3378.2082 
 4885000     374.1356    45.873942    45.873942    43.921607    92429.446    -399.5122   -3804.5395     433.8933   -3370.6462 
 4890000    373.35873    45.906063    45.906063    43.952361    92623.736   -672.02056   -3799.2749    432.99234   -3366.2825 
 4895000    371.75209    45.887915    45.887915    43.934986    92513.933    254.80506    -3804.076    431.12908   -3372.9469 
 4900000    372.52367    45.862947    45.862947    43.911081    92363.003    661.04195   -3811.3196     432.0239   -3379.2957 
 4905000    367.88648    45.879101    45.879101    43.926547    92460.634    984.48379   -3805.8898    426.64605   -3379.2437 
 4910000    377.49372    45.828724    45.828724    43.878314    92156.392   -509.96357   -3814.7987    437.78778   -3377.0109 
 4915000    378.66998    45.883939    45.883939    43.931179    92489.888    293.17919   -3804.1686    439.15191   -3365.0167 
 4920000    372.77874    45.898065    45.898065    43.944704    92575.336    557.77465   -3807.8445    432.31972   -3375.5248 
 4925000    380.87046    45.918694    45.918694    43.964455    92700.219    63.307466   -3798.3185    441.70387   -3356.6146 
 4930000    372.71201    45.835179    45.835179    43.884494    92195.335    -221.0295   -3804.4406    432.24233   -3372.1983 
 4935000    369.40001    45.876644    45.876644    43.924194    92445.777    216.28366   -3802.3099    428.40133   -3373.9086 
 4940000    373.91304    45.890073    45.890073    43.937052    92526.986   -479.11577   -3804.0393    433.63519   -3370.4041 
 4945000    370.80987    45.834572    45.834572    43.883913    92191.675    722.09691   -3806.0072    430.03638   -3375.9708 
 4950000    368.65945    45.897362    45.897362    43.944031    92571.085    123.44412   -3804.5859    427.54248   -3377.0434 
 4955000    374.08489    45.861211    45.861211    43.909419    92352.515    64.708971   -3794.8512    433.83448   -3361.0167 
 4960000     375.1023    45.840864    45.840864    43.889937    92229.649     1018.378   -3802.0484    435.01439    -3367.034 
 4965000     372.9962    45.888673    45.888673    43.935712    92518.519   -740.01111   -3809.1421    432.57191   -3376.5702 
 4970000    370.92014    45.873866    45.873866    43.921535    92428.989   -893.40565   -3806.5914    430.16425   -3376.4272 
 4975000    377.32989    45.885276    45.885276    43.932459     92497.97    418.89398   -3798.1768    437.59779    -3360.579 
 4980000    371.60386    45.851882    45.851882    43.900486    92296.166   -317.72818   -3813.4186    430.95718   -3382.4614 
 4985000    372.98823    45.901633    45.901633     43.94812    92596.928   -598.63743   -3806.1143    432.56266   -3373.5517 
 4990000    366.68815    45.875084    45.875084    43.922701    92436.348   -137.83132   -3804.7733    425.25632   -3379.5169 
 4995000    369.65483    45.889278    45.889278    43.936291    92522.177    482.47185   -3806.4178    428.69684    -3377.721 
 5000000    369.58139    45.853961    45.853961    43.902477    92308.723    521.59792   -3798.9897    428.61168    -3370.378 
Loop time of 16368.5 on 24 procs for 1000000 steps with 8973 atoms

Performance: 2.639 ns/day, 9.094 hours/ns, 61.093 timesteps/s
99.9% CPU use with 24 MPI tasks x 1 OpenMP threads

MPI task timing breakdown:
Section |  min time  |  avg time  |  max time  |%varavg| %total
---------------------------------------------------------------
Pair    | 11623      | 13839      | 15224      | 720.1 | 84.55
Bond    | 51.335     | 54.464     | 59.486     |  24.9 |  0.33
Kspace  | 528.96     | 1914.1     | 4126.9     |1935.7 | 11.69
Neigh   | 96.22      | 96.594     | 97.042     |   2.7 |  0.59
Comm    | 319.57     | 324.37     | 328.53     |  13.1 |  1.98
Output  | 0.056052   | 0.058479   | 0.10585    |   4.1 |  0.00
Modify  | 100.56     | 108.68     | 123.19     |  70.2 |  0.66
Other   |            | 31.12      |            |       |  0.19

Nlocal:    373.875 ave 389 max 340 min
Histogram: 1 0 0 0 3 3 3 6 5 3
Nghost:    11824.7 ave 11890 max 11754 min
Histogram: 1 3 1 5 2 2 3 2 2 3
Neighs:    373765 ave 405210 max 321618 min
Histogram: 1 1 1 2 1 6 3 1 5 3

Total # of neighbors = 8970349
Ave neighs/atom = 999.705
Ave special neighs/atom = 2.45938
Neighbor list builds = 9082
Dangerous builds = 0

unfix	2

write_restart	cold.restart
PPPM initialization ...
  using 12-bit tables for long-range coulomb (../kspace.cpp:332)
  G vector (1/distance) = 0.189481
  grid = 20 20 20
  stencil order = 5
  estimated absolute RMS force accuracy = 0.000655787
  estimated relative force accuracy = 4.55419e-05
  using single precision MKL FFT
  3d grid and FFT values/proc = 1950 400

write_data	cold.data	nocoeff
PPPM initialization ...
  using 12-bit tables for long-range coulomb (../kspace.cpp:332)
  G vector (1/distance) = 0.189481
  grid = 20 20 20
  stencil order = 5
  estimated absolute RMS force accuracy = 0.000655787
  estimated relative force accuracy = 4.55419e-05
  using single precision MKL FFT
  3d grid and FFT values/proc = 1950 400

# ****************  Now optimize at target TEMP3  ********************
# ****************  edf  ********************

fix	3	all npt	temp	${T3}	${T3}	0.1	iso	${Pre}	${Pre}	0.5
fix	3	all npt	temp	573	${T3}	0.1	iso	${Pre}	${Pre}	0.5
fix	3	all npt	temp	573	573	0.1	iso	${Pre}	${Pre}	0.5
fix	3	all npt	temp	573	573	0.1	iso	1	${Pre}	0.5
fix	3	all npt	temp	573	573	0.1	iso	1	1	0.5

dump		1	all	custom	500000	hotoptimize.dump	id	type	x	y	z
dump_modify	1	sort	id

thermo_style 	custom	step	temp	lx	ly	lz	vol	press	pe	ke	etotal
thermo		5000

restart	1000000    hotoptimize.restart

run		2000000
PPPM initialization ...
  using 12-bit tables for long-range coulomb (../kspace.cpp:332)
  G vector (1/distance) = 0.189481
  grid = 20 20 20
  stencil order = 5
  estimated absolute RMS force accuracy = 0.000655787
  estimated relative force accuracy = 4.55419e-05
  using single precision MKL FFT
  3d grid and FFT values/proc = 1950 400
Per MPI rank memory allocation (min/avg/max) = 15.2 | 15.62 | 15.98 Mbytes
Step Temp Lx Ly Lz Volume Press PotEng KinEng TotEng 
 5000000    369.58139    45.853961    45.853961    43.902477    92308.723     521.5468   -3798.9898    428.61168   -3370.3781 
 5005000    569.66103    46.416086    46.416086    44.440678    95745.352     142.6062   -3512.0843    660.64844   -2851.4359 
 5010000     569.4428    46.550899    46.550899    44.569754    96582.044   -356.40501   -3489.6163    660.39535   -2829.2209 
 5015000    567.55166    46.670334    46.670334    44.684106    97327.349    102.45239   -3486.0666    658.20216   -2827.8644 
 5020000    571.78459    46.658724    46.658724    44.672991    97254.734    1150.7745    -3480.404    663.11118   -2817.2929 
 5025000    565.48287    46.724794    46.724794    44.736248    97668.463   -1531.6341   -3464.5282    655.80294   -2808.7253 
 5030000    581.40095    46.783282    46.783282    44.792247    98035.693    651.55436   -3453.5965    674.26348   -2779.3331 
 5035000     567.7012    46.778753    46.778753    44.787911    98007.223    419.26087   -3448.1631    658.37559   -2789.7875 
 5040000    574.55019    46.787664    46.787664    44.796442    98063.241   -368.24759   -3453.2864    666.31851   -2786.9679 
 5045000    578.74926    46.801599    46.801599    44.809784    98150.887   -1083.6173   -3438.9531    671.18826   -2767.7648 
 5050000    576.27163    46.851522    46.851522    44.857583    98465.315   -548.15613   -3432.7541     668.3149   -2764.4392 
 5055000    574.07259    46.973197    46.973197    44.974079     99234.46    1252.5492   -3426.2143    665.76462   -2760.4497 
 5060000    581.59456    46.986237    46.986237    44.986565     99317.13    238.33984   -3423.2741    674.48802   -2748.7861 
 5065000    574.41632    46.940676    46.940676    44.942942    99028.493    -1318.338   -3431.3391    666.16326   -2765.1758 
 5070000    571.15362    46.891375    46.891375    44.895739    98716.797   -266.78214   -3423.3296    662.37943   -2760.9502 
 5075000    569.99745    46.966201    46.966201    44.967381    99190.131    -752.1751   -3417.5431    661.03859   -2756.5045 
 5080000    564.66069    46.931576    46.931576     44.93423    98970.916    -114.1363   -3434.6916    654.84943   -2779.8421 
 5085000    574.21853    46.991128    46.991128    44.991247    99348.148   -493.85659   -3417.4659    665.93388   -2751.5321 
 5090000    573.03465    46.926946    46.926946    44.929797    98941.626   -1347.3809   -3425.9462     664.5609   -2761.3853 
 5095000    564.27805    47.047114    47.047114    45.044851    99703.667   -196.85267   -3412.0992    654.40568   -2757.6935 
 5100000    573.93884    46.988896    46.988896     44.98911    99333.991    728.71488   -3408.7547    665.60951   -2743.1452 
 5105000    566.73812    46.985767    46.985767    44.986114    99314.146    1095.1007   -3422.9676    657.25868    -2765.709 
 5110000    571.33209    47.007682    47.007682    45.007097    99453.178   -1296.4603   -3431.5078    662.58641   -2768.9214 
 5115000    576.02316    46.943946    46.943946    44.946074    99049.195    474.03632   -3427.1367    668.02674   -2759.1099 
 5120000    583.81142    46.990603    46.990603    44.990745     99344.82    828.14163   -3423.8303    677.05895   -2746.7713 
 5125000    569.68644    46.998452    46.998452     44.99826     99394.61   -73.355082   -3417.1088     660.6779   -2756.4309 
 5130000    575.29896    46.932136    46.932136    44.934766    98974.456    -259.8974   -3419.2562    667.18687   -2752.0693 
 5135000    579.42821    46.947513    46.947513    44.949488    99071.772     342.9916   -3416.4464    671.97566   -2744.4708 
 5140000    575.07014    46.967413    46.967413    44.968542    99197.811   -2237.3014   -3434.6054    666.92151   -2767.6839 
 5145000    570.69795    46.966673    46.966673    44.967833    99193.123   -421.66636   -3416.8262    661.85098   -2754.9753 
 5150000    567.28341    46.879602    46.879602    44.884468    98642.462   -171.24452   -3423.1782    657.89106   -2765.2871 
 5155000    577.03628    46.887694    46.887694    44.892215    98693.552     662.9503   -3419.4834    669.20168   -2750.2817 
 5160000    578.02385    46.952479    46.952479    44.954244    99103.218     1119.772   -3424.9787    670.34699   -2754.6317 
 5165000    568.43915    46.971156    46.971156    44.972126     99221.53    500.33648   -3420.9288     659.2314   -2761.6974 
 5170000    567.42223    46.968291    46.968291    44.969382    99203.371    375.57792   -3432.1076    658.05206   -2774.0556 
 5175000    569.06429    46.963308    46.963308    44.964612    99171.804    414.75351   -3422.8381    659.95638   -2762.8817 
 5180000    570.90742    46.881996    46.881996     44.88676    98657.574    386.33141   -3431.7382     662.0939   -2769.6443 
 5185000    569.15298    46.977406    46.977406    44.978109    99261.138    1175.8238   -3433.5618    660.05924   -2773.5026 
 5190000    576.23658    46.938406    46.938406     44.94077    99014.133    1779.0998   -3422.6241    668.27425   -2754.3498 
 5195000     577.9203    46.974421    46.974421    44.975251    99242.217    423.69309   -3414.5678     670.2269   -2744.3409 
 5200000    578.38587    46.941716    46.941716    44.943939    99035.079    870.32195   -3430.5139    670.76683    -2759.747 
 5205000    571.44454    46.994156    46.994156    44.994147    99367.358   -189.85652   -3428.0103    662.71682   -2765.2935 
 5210000    571.28151    46.998612    46.998612    44.998412     99395.62   -491.73317   -3416.5358    662.52774    -2754.008 
 5215000    571.76143    46.910266    46.910266    44.913826    98836.155   -404.04531   -3426.4186    663.08432   -2763.3343 
 5220000    567.38287    46.983425    46.983425    44.983872    99299.299    514.97678   -3418.8247    658.00641   -2760.8183 
 5225000    565.75343    46.956015    46.956015    44.957629    99125.609   -89.824828   -3428.5636    656.11671   -2772.4469 
 5230000     575.7764     46.97717     46.97717    44.977883    99259.642     -816.143   -3431.6927    667.74057   -2763.9521 
 5235000    567.15692    46.961552    46.961552     44.96293    99160.677   -1361.5555   -3424.4319    657.74436   -2766.6875 
 5240000      580.281     46.88177     46.88177    44.886544    98656.151    301.83617   -3442.0428    672.96465   -2769.0782 
 5245000    568.64416    46.861397    46.861397    44.867038    98527.592    267.35749   -3431.9859    659.46915   -2772.5167 
 5250000    566.04213    46.925422    46.925422    44.928338    98931.987    2.3376969   -3428.5738    656.45152   -2772.1223 
 5255000    569.82825    46.850515    46.850515    44.856619    98458.965    669.28661   -3428.3261    660.84237   -2767.4838 
 5260000    575.62936    46.874593    46.874593    44.879672    98610.847    939.35644   -3422.4629    667.57004   -2754.8928 
 5265000    572.71645    46.842922    46.842922    44.849349    98411.105      96.4306   -3431.8061    664.19188   -2767.6142 
 5270000     577.4307    46.919593    46.919593    44.922757    98895.123    327.54324   -3421.8151     669.6591    -2752.156 
 5275000     575.8896    46.919346    46.919346    44.922521    98893.562    584.53726   -3433.9969    667.87185    -2766.125 
 5280000    571.68677    46.955763    46.955763    44.957388    99124.014    217.78239   -3425.1396    662.99774   -2762.1418 
 5285000    570.72981     47.02317     47.02317    45.021925    99551.512    566.53973   -3422.1548    661.88793   -2760.2669 
 5290000    569.20899    46.933372    46.933372    44.935949    98982.277    2197.4837   -3424.9718     660.1242   -2764.8476 
 5295000    571.67602    47.017515    47.017515    45.016512    99515.604   -331.77725   -3426.6875    662.98527   -2763.7022 
 5300000    570.46047    46.925659    46.925659    44.928565    98933.483    2283.7209   -3424.8793    661.57557   -2763.3037 
 5305000    583.32213    46.935804    46.935804    44.938278    98997.663     658.6783   -3434.9364    676.49152   -2758.4449 
 5310000    577.72384     47.00957     47.00957    45.008905    99465.164    1486.8247   -3431.5526    669.99906   -2761.5535 
 5315000    575.04305    46.974168    46.974168    44.975009    99240.615   -682.47737   -3423.5455    666.89008   -2756.6554 
 5320000    566.53122    46.981114    46.981114    44.981659    99284.646   -1462.1842    -3425.227    657.01873   -2768.2083 
 5325000    564.71601    46.859815    46.859815    44.865523    98517.609    160.88412   -3425.6213     654.9136   -2770.7077 
 5330000    573.03641    46.967158    46.967158    44.968298    99196.196   -1560.5241   -3428.1196    664.56295   -2763.5567 
 5335000    571.04338    46.928591    46.928591    44.931372    98952.033    1448.9718   -3436.0873    662.25158   -2773.8357 
 5340000    574.98829     46.97631     46.97631     44.97706    99254.195    -402.8824   -3411.4716    666.82658    -2744.645 
 5345000    567.19297    46.882653    46.882653    44.887389    98661.724    790.88361   -3424.0191    657.78617   -2766.2329 
 5350000    575.79983    46.954678    46.954678    44.956349    99117.142    531.51064   -3415.6579    667.76775   -2747.8901 
 5355000    582.45872    47.005375    47.005375    45.004888    99438.539     1011.013   -3422.0212     675.4902    -2746.531 
 5360000    576.30812    46.951959    46.951959    44.953746    99099.925   -566.52474   -3425.6272    668.35721     -2757.27 
 5365000    571.29253    46.852708    46.852708    44.858718    98472.793    -455.0921   -3423.4267    662.54053   -2760.8862 
 5370000    568.70888    46.974501    46.974501    44.975328    99242.728   -779.64397   -3418.1604    659.54422   -2758.6162 
 5375000    573.70223    46.955516    46.955516    44.957152    99122.451    1137.7782   -3416.4385    665.33511   -2751.1034 
 5380000    578.76661    47.053723    47.053723    45.051179    99745.693   -691.48404   -3418.1335    671.20839   -2746.9251 
 5385000    576.14443    47.010773    47.010773    45.010057    99472.801   -935.14401   -3422.1918    668.16739   -2754.0245 
 5390000    573.71883     46.88062     46.88062    44.885443    98648.892   -100.50117   -3431.4507    665.35436   -2766.0964 
 5395000    565.21652    46.924681    46.924681    44.927628    98927.297   -670.20629   -3435.1229    655.49404   -2779.6289 
 5400000     578.3076     46.90548     46.90548    44.909245     98805.91    -105.6677   -3437.9646    670.67606   -2767.2886 
 5405000    567.20945    47.014052    47.014052    45.013196    99493.616   -2361.4783   -3421.6889    657.80529   -2763.8836 
 5410000    573.55588    46.957259    46.957259     44.95882    99133.487    -70.52612     -3432.88    665.16539   -2767.7146 
 5415000    576.23251    46.860651    46.860651    44.866323    98522.884   -118.91035   -3433.6333    668.26953   -2765.3638 
 5420000     576.4667    46.931237    46.931237    44.933905     98968.77    522.62078   -3425.2095    668.54113   -2756.6683 
 5425000    575.54669    46.880776    46.880776    44.885592    98649.877   -1802.8842   -3429.7014    667.47417   -2762.2272 
 5430000    572.54314    46.988046    46.988046    44.988296    99328.601    346.93009    -3427.744    663.99089   -2763.7531 
 5435000     572.6715    47.014618    47.014618    45.013738    99497.209   -54.519605   -3423.6945    664.13975   -2759.5547 
 5440000    567.44074    46.942111    46.942111    44.944316    99037.577   -934.78052    -3424.064    658.07352   -2765.9905 
 5445000     578.7071    46.945656    46.945656     44.94771    99060.015   -987.15999   -3431.5768    671.13937   -2760.4374 
 5450000    571.99372    46.924301    46.924301    44.927265    98924.896    -1471.948   -3430.7105    663.35371   -2767.3568 
 5455000    574.91247    47.008055    47.008055    45.007454    99455.549   -254.82942   -3424.8664    666.73865   -2758.1278 
 5460000    566.72718    47.045971    47.045971    45.043756    99696.397   -1277.6242   -3422.1528    657.24599   -2764.9068 
 5465000    567.29784    46.954899    46.954899     44.95656    99118.537    358.79192   -3435.4458     657.9078    -2777.538 
 5470000    576.79878    46.973766    46.973766    44.974625    99238.071   -780.12273   -3442.2156    668.92624   -2773.2894 
 5475000    569.15692    46.976759    46.976759     44.97749    99257.038   -735.33257   -3427.9635    660.06381   -2767.8997 
 5480000    575.30545    46.942394    46.942394    44.944587    99039.369    561.30813   -3434.2686     667.1944   -2767.0743 
 5485000    572.68201    46.865614    46.865614    44.871075    98554.189   -123.31221   -3427.2564    664.15194   -2763.1045 
 5490000    576.91005    46.896172    46.896172    44.900333      98747.1    859.59082   -3433.4034    669.05529   -2764.3481 
 5495000    579.62159    46.837057    46.837057    44.843734    98374.143    1367.6428   -3423.4328    672.19992   -2751.2329 
 5500000    568.37793    46.904133    46.904133    44.907955    98797.397   -1074.2282   -3424.5914     659.1604    -2765.431 
 5505000    578.95141      46.8087      46.8087    44.816584    98195.574    2596.5893   -3433.1568    671.42269   -2761.7341 
 5510000    574.85738    46.988892    46.988892    44.989107    99333.969    954.46349   -3430.9362    666.67476   -2764.2614 
 5515000    571.81869    46.920782    46.920782    44.923895    98902.639    457.71375   -3430.6378    663.15073   -2767.4871 
 5520000    573.30815     46.87444     46.87444    44.879525     98609.88   -417.36311   -3424.8018    664.87808   -2759.9237 
 5525000    576.20841    46.944594    46.944594    44.946694    99053.294    354.35588   -3426.5841    668.24158   -2758.3425 
 5530000    571.81592    46.888275    46.888275    44.892772    98697.223   -728.06173   -3424.7004    663.14752   -2761.5529 
 5535000    572.46608    46.834701    46.834701    44.841478    98359.296    929.37869    -3423.728    663.90152   -2759.8264 
 5540000    575.22068    46.891014    46.891014    44.895394     98714.52   -802.48972   -3420.3679    667.09609   -2753.2718 
 5545000    571.48489    47.064363    47.064363    45.061366    99813.373   -2426.4405    -3425.275    662.76361   -2762.5114 
 5550000    570.70569    46.948468    46.948468    44.950403    99077.819   -163.55926   -3430.8481    661.85996   -2768.9882 
 5555000    574.56191    46.808976    46.808976    44.816848    98197.309    144.11169   -3435.3877     666.3321   -2769.0556 
 5560000    564.80083    46.899346    46.899346    44.903372    98767.151   -543.74893   -3433.6478    655.01196   -2778.6358 
 5565000    564.46525    46.820203    46.820203    44.827596    98267.981    1130.6053   -3437.0294    654.62279   -2782.4066 
 5570000    580.43639    46.910921    46.910921    44.914454    98840.297   -821.12226   -3421.1154    673.14486   -2747.9706 
 5575000    564.83903    47.083384    47.083384    45.079577    99934.438   -1241.7735   -3407.2798    655.05626   -2752.2236 
 5580000    569.67806    46.866879    46.866879    44.872286     98562.17   -831.73699   -3436.8125    660.66819   -2776.1443 
 5585000    559.40452    47.011395    47.011395    45.010652    99476.746    498.55404   -3420.8659    648.75374   -2772.1121 
 5590000    575.02994    47.035369    47.035369    45.033606    99629.017   -1023.5737    -3436.427    666.87488   -2769.5521 
 5595000    570.76954    46.869698    46.869698    44.874986    98579.961   -843.45012    -3423.256      661.934    -2761.322 
 5600000    574.57467    47.057627    47.057627    45.054916    99770.516   -1624.8999    -3429.416     666.3469   -2763.0691 
 5605000    566.43018    47.011335    47.011335    45.010594    99476.364    859.68598   -3434.1572    656.90155   -2777.2557 
 5610000    570.96606    46.994053    46.994053    44.994048    99366.702    368.94585   -3421.8394    662.16192   -2759.6775 
 5615000    568.17293    46.974971    46.974971    44.975778    99245.705    4.6890637   -3422.8737    658.92266    -2763.951 
 5620000    569.63613    46.870947    46.870947    44.876181    98587.838   -709.46529    -3430.706    660.61957   -2770.0864 
 5625000    564.89631    46.973426    46.973426    44.974299    99235.913   -574.57293   -3425.7862    655.12269   -2770.6636 
 5630000    568.64095    46.899857    46.899857    44.903861    98770.379    1092.4704   -3434.0412    659.46543   -2774.5758 
 5635000    566.02318    46.914515    46.914515    44.917895    98863.019    46.139406   -3413.8622    656.42955   -2757.4327 
 5640000    575.26024     46.87951     46.87951     44.88438    98641.885   -375.71189   -3433.2129    667.14197   -2766.0709 
 5645000    573.64555    46.952036    46.952036    44.953819    99100.409   -1234.3537   -3432.4672    665.26938   -2767.1978 
 5650000    563.47397    46.967399    46.967399    44.968528    99197.719    437.50011    -3425.594    653.47317   -2772.1208 
 5655000    574.01922    46.891536    46.891536    44.895894    98717.818   -1423.9732   -3424.7573    665.70273   -2759.0546 
 5660000    571.77521    46.989053    46.989053    44.989261     99334.99   -1775.6751   -3435.2975     663.1003   -2772.1972 
 5665000    568.81841    46.949389    46.949389    44.951285    99083.649    1499.7278   -3426.1348    659.67124   -2766.4636 
 5670000    573.19445     46.96352     46.96352    44.964814    99173.144   -117.35434   -3430.0263    664.74623   -2765.2801 
 5675000    562.27053    47.004411    47.004411    45.003966    99432.423    284.87622   -3416.6674    652.07751   -2764.5899 
 5680000    573.29004    46.912111    46.912111    44.915593    98847.817    1279.9819   -3439.1286    664.85709   -2774.2716 
 5685000    577.67332    46.979343    46.979343    44.979964    99273.422    969.11328   -3426.5913    669.94047   -2756.6508 
 5690000    571.80391     46.95547     46.95547    44.957107    99122.158   -341.71068   -3417.7763    663.13358   -2754.6427 
 5695000    574.43151    46.951909    46.951909    44.953698    99099.609    24.653526   -3427.6423    666.18087   -2761.4614 
 5700000    579.46743     46.97546     46.97546    44.976246    99248.807    1290.9267   -3424.7495    672.02113   -2752.7284 
 5705000    575.59187    46.910647    46.910647    44.914191    98838.562   -198.49149    -3432.961    667.52656   -2765.4344 
 5710000    566.76857    46.968368    46.968368    44.969456    99203.859   -943.82133   -3416.9525    657.29399   -2759.6585 
 5715000    577.19872    46.842256    46.842256    44.848711    98406.906   -375.79811   -3437.5115    669.39006   -2768.1214 
 5720000     573.9473    46.956822    46.956822    44.958401    99130.716   -694.94899   -3436.9024    665.61932   -2771.2831 
 5725000    573.72086    46.882274    46.882274    44.887026     98659.33   -1504.7649   -3440.0973    665.35672   -2774.7406 
 5730000     573.6331    46.880712    46.880712     44.88553     98649.47    313.18411   -3441.0643    665.25493   -2775.8093 
 5735000    570.23851    46.894089    46.894089    44.898339    98733.944    499.13405   -3436.9674    661.31816   -2775.6493 
 5740000    566.05893    46.841814    46.841814    44.848288    98404.122   -331.51819     -3433.68    656.47101    -2777.209 
 5745000     575.0602    46.904784    46.904784    44.908578    98801.511   -660.25861   -3427.9664    666.90997   -2761.0565 
 5750000    574.47455    46.900184    46.900184    44.904174    98772.445   -307.55808   -3445.9323    666.23079   -2779.7015 
 5755000    575.25692     46.95605     46.95605    44.957663    99125.832    -697.0756   -3439.2062    667.13812   -2772.0681 
 5760000    571.02514    46.840338    46.840338    44.846875     98394.82    1058.5685   -3437.7421    662.23043   -2775.5117 
 5765000    571.80417    47.007349    47.007349    45.006779    99451.069   -23.381381   -3422.8925    663.13388   -2759.7586 
 5770000    568.90635    46.955204    46.955204    44.956852    99120.469    959.22356   -3426.6131    659.77322   -2766.8399 
 5775000    574.31463     46.99903     46.99903    44.998813    99398.273   -941.68601   -3433.7995    666.04532   -2767.7542 
 5780000    576.57859    46.991264    46.991264    44.991378     99349.01    757.03173   -3423.4094    668.67089   -2754.7385 
 5785000    574.35578    46.923242    46.923242    44.926251    98918.201    202.85178   -3425.1285    666.09305   -2759.0355 
 5790000    582.86326    47.043325    47.043325    45.041223     99679.58   -857.44753   -3416.3684    675.95936    -2740.409 
 5795000    573.93677    46.982427    46.982427    44.982917    99292.974   -222.33623    -3416.195    665.60711   -2750.5879 
 5800000    572.74733    47.014777    47.014777     45.01389    99498.216    2080.2894   -3422.8268    664.22769   -2758.5991 
 5805000       571.51    46.999399    46.999399    44.999166    99400.615    895.69853    -3414.304    662.79274   -2751.5112 
 5810000    575.40554    46.914822    46.914822    44.918189     98864.96   -434.56199   -3414.2864    667.31048   -2746.9759 
 5815000    566.86091    46.973042    46.973042    44.973931    99233.479   -1407.4028   -3421.7947    657.40108   -2764.3936 
 5820000    574.25004    46.857721    46.857721    44.863518    98504.403    837.68979   -3428.4795    665.97041   -2762.5091 
 5825000    573.28096    46.824307    46.824307    44.831526    98293.825   -415.01599   -3445.6079    664.84655   -2780.7613 
 5830000    576.22974    46.935598    46.935598    44.938081    98996.361    -117.0893   -3435.2251    668.26632   -2766.9588 
 5835000    577.79113    46.908143    46.908143    44.911795    98822.741   -2035.0287   -3437.4172     670.0771   -2767.3401 
 5840000    567.40831    46.879996    46.879996    44.884845     98644.95    482.82447   -3424.6451    658.03592   -2766.6092 
 5845000    574.20426    46.993866    46.993866    44.993869    99365.513    -743.1219   -3430.5239    665.91732   -2764.6065 
 5850000     570.6486    46.919338    46.919338    44.922513    98893.509   -94.163202   -3437.4105    661.79375   -2775.6168 
 5855000    580.38403    46.922792    46.922792     44.92582    98915.352   -683.36059   -3435.0443    673.08415   -2761.9602 
 5860000    584.12644    46.992615    46.992615    44.992671    99357.577    1371.0299   -3426.8739     677.4243   -2749.4496 
 5865000    572.50283    46.894896    46.894896    44.899111    98739.041     767.4982   -3426.2932    663.94414    -2762.349 
 5870000    568.74278    47.006062    47.006062    45.005546    99442.897   -631.85241   -3416.3472    659.58352   -2756.7637 
 5875000    576.62835    46.962145    46.962145    44.963498    99164.433   -645.39583   -3421.1304    668.72859   -2752.4018 
 5880000    573.38228    46.951123    46.951123    44.952945     99094.63   -413.73426    -3431.138    664.96406    -2766.174 
 5885000    577.12941    46.951624    46.951624    44.953425    99097.803    742.47757   -3427.9572    669.30969   -2758.6475 
 5890000    572.25348    46.905423    46.905423    44.909189    98805.546   -515.74952   -3437.2547    663.65497   -2773.5997 
 5895000    576.75169    46.931455    46.931455    44.934114    98970.146    707.68791   -3420.8635    668.87163   -2751.9918 
 5900000    578.74129    46.929781    46.929781    44.932512     98959.56    588.06523   -3429.7673    671.17902   -2758.5883 
 5905000    571.52354     46.85631     46.85631    44.862167    98495.504    682.09853    -3425.614    662.80843   -2762.8055 
 5910000    570.43562    46.914812    46.914812     44.91818    98864.895   -454.73023   -3425.7435    661.54675   -2764.1968 
 5915000    573.45252    46.883243    46.883243    44.887954    98665.448     -198.249   -3428.1532    665.04551   -2763.1077 
 5920000    575.30372    46.862005    46.862005    44.867619    98531.422    613.73409   -3431.1063     667.1924   -2763.9139 
 5925000    573.98185    46.973888    46.973888    44.974741    99238.842    -554.6276   -3416.9266    665.65939   -2751.2672 
 5930000    577.41799    46.910653    46.910653    44.914197    98838.601   -2708.9562   -3426.5391    669.64436   -2756.8947 
 5935000    566.72493    46.905488    46.905488    44.909252    98805.958   -408.67816   -3432.1574    657.24338    -2774.914 
 5940000    583.36422    46.913237    46.913237    44.916671    98854.936    1017.1606   -3435.8121    676.54033   -2759.2718 
 5945000    568.60248     46.92836     46.92836    44.931151    98950.568    438.42275   -3426.0817    659.42082   -2766.6608 
 5950000    572.05692    46.953619    46.953619    44.955334    99110.432   -745.92019    -3429.084    663.42701    -2765.657 
 5955000     567.9721    46.949302    46.949302    44.951202    99083.102   -284.44005   -3421.9267    658.68976    -2763.237 
 5960000    576.78373    47.063765    47.063765    45.060793    99809.567   -475.02214   -3423.4197     668.9088   -2754.5109 
 5965000    562.21638    46.925782    46.925782    44.928682    98934.262     1411.035   -3424.3917    652.01472    -2772.377 
 5970000    577.42326    47.030278    47.030278    45.028731    99596.664    646.87353   -3425.3585    669.65047    -2755.708 
 5975000    569.95983    46.973797    46.973797    44.974654    99238.268   -282.32685   -3431.2245    660.99497   -2770.2296 
 5980000    576.06844    46.927992    46.927992    44.930798    98948.241    973.51909   -3429.1414    668.07926   -2761.0621 
 5985000    578.82225    46.968502    46.968502    44.969584    99204.708     1119.965   -3413.2677    671.27291   -2741.9948 
 5990000     578.4842    46.980489    46.980489    44.981061    99280.686   -17.638952   -3421.4324    670.88087   -2750.5515 
 5995000    571.17452    47.028617    47.028617    45.027141    99586.116    1222.0435   -3426.8306    662.40367   -2764.4269 
 6000000    570.06221    46.972428    46.972428    44.973343     99229.59    640.20274   -3424.4861    661.11369   -2763.3724 
 6005000       573.83    46.985918    46.985918     44.98626    99315.109    172.21955   -3426.0721    665.48329   -2760.5888 
 6010000    567.98156    46.966618    46.966618     44.96778    99192.772   -196.81391   -3423.3591    658.70072   -2764.6583 
 6015000    576.31403    46.913671    46.913671    44.917087    98857.683     -531.587   -3436.1769    668.36407   -2767.8128 
 6020000    574.09455    46.922585    46.922585    44.925622    98914.044   -579.70047   -3433.8755    665.79009   -2768.0854 
 6025000    567.81672    46.911548    46.911548    44.915054    98844.262    -999.9963   -3438.4297    658.50956   -2779.9202 
 6030000    569.02237    47.019685    47.019685    45.018589    99529.382    242.95324   -3420.8387    659.90778   -2760.9309 
 6035000    569.54505    46.927839    46.927839    44.930652    98947.275    1366.1795   -3442.8131    660.51393   -2782.2992 
 6040000    571.14895    46.973373    46.973373    44.974248    99235.577    574.78685   -3425.3496    662.37401   -2762.9756 
 6045000    568.43664    46.986226    46.986226    44.986554    99317.058   -208.82708   -3419.1976    659.22849   -2759.9691 
 6050000     569.5649    46.903823    46.903823    44.907658    98795.441    60.736858   -3424.2609    660.53695    -2763.724 
 6055000    574.68497    46.924407    46.924407    44.927366    98925.563   -377.56102    -3424.747    666.47482   -2758.2721 
 6060000    570.19782    46.880473    46.880473    44.885302    98647.961   -327.40378   -3433.2929    661.27096   -2772.0219 
 6065000    573.15577    46.934178    46.934178    44.936721    98987.377   -57.808395   -3422.3561    664.70137   -2757.6548 
 6070000    571.11412    46.901089    46.901089     44.90504     98778.16   -329.80695   -3431.1626    662.33362    -2768.829 
 6075000    570.28924    46.872706    46.872706    44.877865    98598.939   -860.86165   -3432.0936    661.37699   -2770.7166 
 6080000    574.01779    46.907839    46.907839    44.911503    98820.817    258.94597   -3423.7689    665.70107   -2758.0678 
 6085000    572.81814    46.965264    46.965264    44.966485    99184.197   -1383.6635   -3429.4154    664.30981   -2765.1056 
 6090000    568.48388    46.929389    46.929389    44.932136    98957.078   -1006.4443   -3440.2113    659.28327    -2780.928 
 6095000    573.05119    46.931811    46.931811    44.934455    98972.403    827.21391   -3428.7763    664.58008   -2764.1963 
 6100000    583.59477    46.991338    46.991338    44.991448    99349.479   -1205.9653   -3431.0952    676.80771   -2754.2875 
 6105000    569.49952    46.930924    46.930924    44.933605    98966.786   -943.38098   -3430.3474    660.46113   -2769.8863 
 6110000    573.29412    46.893739    46.893739    44.898003    98731.728    240.32292   -3439.9216    664.86181   -2775.0598 
 6115000     572.8914    46.908618    46.908618    44.912249    98825.742    2072.7413   -3433.9118    664.39477    -2769.517 
 6120000    574.44717    46.899439    46.899439     44.90346    98767.736    1357.7032   -3428.4184    666.19903   -2762.2194 
 6125000    569.55132    46.979004    46.979004    44.979639    99271.267    330.13179   -3432.3587    660.52121   -2771.8375 
 6130000     576.6294    46.942199    46.942199    44.944401    99038.134   -472.42605   -3433.8222    668.72982   -2765.0924 
 6135000    572.75748    47.005038    47.005038    45.004566      99436.4   -355.79079   -3432.9034    664.23946    -2768.664 
 6140000    568.80465    46.921634    46.921634    44.924711    98908.026   -666.71727   -3434.7852    659.65528     -2775.13 
 6145000      565.271    46.857312    46.857312    44.863126    98501.824    -16.30025   -3430.1772    655.55722     -2774.62 
 6150000    567.38522    46.933025    46.933025    44.935617    98980.081   -1420.9915   -3433.5833    658.00914   -2775.5741 
 6155000    574.52039    46.952629    46.952629    44.954387    99104.163    -324.7955   -3440.2168    666.28395   -2773.9328 
 6160000    577.48867     46.88272     46.88272    44.887453    98662.145    227.53158   -3433.1187    669.72632   -2763.3924 
 6165000    572.17579    46.837917    46.837917    44.844557     98379.56    701.85378   -3434.9129    663.56486    -2771.348 
 6170000     563.9637    46.958552    46.958552    44.960058    99141.676     98.75247   -3431.9066    654.04112   -2777.8654 
 6175000    571.82603    46.917554    46.917554    44.920805    98882.233    1252.0352    -3437.626    663.15924   -2774.4667 
 6180000    570.86594    46.907175    46.907175    44.910867    98816.622   -1069.1258    -3434.426     662.0458   -2772.3802 
 6185000    563.94201    46.936944    46.936944     44.93937    99004.881   -289.02335   -3434.8309    654.01596   -2780.8149 
 6190000    570.72506    46.926217    46.926217    44.929099    98937.013   -887.72794   -3435.6436    661.88242   -2773.7612 
 6195000    567.03375    46.948703    46.948703    44.950628    99079.308   -985.60859   -3416.2312    657.60153   -2758.6297 
 6200000    566.81361    46.951848    46.951848    44.953639    99099.219   -1438.0777   -3433.3227    657.34623   -2775.9765 
 6205000    569.12167    46.958902    46.958902    44.960393    99143.893    1176.8053   -3425.6015    660.02293   -2765.5785 
 6210000     577.4868     47.00112     47.00112    45.000815    99411.538   -248.78161   -3422.7104    669.72416   -2752.9862 
 6215000    571.53309    47.016104    47.016104    45.015161    99506.646    641.19433   -3416.5318    662.81951   -2753.7123 
 6220000    567.78842    46.880296    46.880296    44.885132    98646.843   -402.84784   -3436.9521    658.47673   -2778.4753 
 6225000    572.30846    46.875676    46.875676    44.880709    98617.686    337.07913   -3428.7617    663.71872    -2765.043 
 6230000    565.40785    46.952663    46.952663    44.954419    99104.378   -891.05536   -3424.8389    655.71594    -2769.123 
 6235000     570.3733    46.853012    46.853012     44.85901    98474.711   -1696.5136   -3425.4402    661.47448   -2763.9658 
 6240000     575.0124    46.925133    46.925133    44.928061    98930.158   -660.70765    -3440.023    666.85454   -2773.1684 
 6245000    570.69265     46.92258     46.92258    44.925616    98914.009   -1013.4801   -3433.9578    661.84484    -2772.113 
 6250000    576.15804     46.87875     46.87875    44.883653    98637.089   -216.31648   -3416.0618    668.18316   -2747.8786 
 6255000    572.17254    47.094049    47.094049    45.089789    100002.36    5.1538034   -3420.7552    663.56109   -2757.1941 
 6260000    561.71426    47.049576    47.049576    45.047208    99719.322    798.56474   -3419.9244     651.4324   -2768.4921 
 6265000    571.09444    47.077725    47.077725    45.074159    99898.408   -2.2721875   -3422.4912    662.31079   -2760.1804 
 6270000    571.18854    46.942449    46.942449     44.94464    99039.715   -40.958499   -3421.3542    662.41992   -2758.9342 
 6275000    574.28526    46.918429    46.918429    44.921642    98887.761    768.70683   -3421.8971    666.01126   -2755.8859 
 6280000    577.46955    46.845739    46.845739    44.852046    98428.859    601.77264   -3433.3139    669.70415   -2763.6098 
 6285000     569.0808    46.835949    46.835949    44.842673    98367.162     1060.562   -3437.5666    659.97553    -2777.591 
 6290000    584.48902    46.965705    46.965705    44.966906    99186.988    163.45519   -3425.0952    677.84479   -2747.2505 
 6295000    572.05518    47.008861    47.008861    45.008226    99460.663   -75.549431   -3416.4176    663.42499   -2752.9926 
 6300000    568.96412    46.921733    46.921733    44.924805    98908.652   -204.95175   -3428.0574    659.84022   -2768.2172 
 6305000    576.12881    46.921477    46.921477     44.92456    98907.033   -142.27963   -3417.8073    668.14927    -2749.658 
 6310000    583.38243    46.902793    46.902793    44.906672    98788.931     246.1105   -3424.7697    676.56145   -2748.2082 
 6315000    570.82184    46.942722    46.942722    44.944901    99041.443   -155.09592   -3433.9126    661.99466    -2771.918 
 6320000    572.52737    46.815679    46.815679    44.823265    98239.499   -863.65708   -3433.4803    663.97259   -2769.5077 
 6325000    579.51716    46.854252    46.854252    44.860197     98482.53    1482.9367   -3424.8332    672.07881   -2752.7544 
 6330000    575.77724    46.925549    46.925549     44.92846    98932.792    980.31555   -3425.4957    667.74155   -2757.7542 
 6335000     568.2059    46.934884    46.934884    44.937397    98991.842    996.11096   -3436.1609     658.9609      -2777.2 
 6340000    568.79395    46.910744    46.910744    44.914284    98839.178    366.78784   -3438.0141    659.64287   -2778.3712 
 6345000    570.60711    46.852194    46.852194    44.858226     98469.55    63.715139   -3415.5253    661.74564   -2753.7796 
 6350000    572.16215     46.99987     46.99987    44.999618    99403.607   -535.53802    -3433.781    663.54905   -2770.2319 
 6355000    568.89255    46.928407    46.928407    44.931196    98950.869    1382.6947    -3426.831    659.75722   -2767.0738 
 6360000    582.93225    46.948972    46.948972    44.950886    99081.013    169.31554   -3428.0952    676.03937   -2752.0559 
 6365000    565.15098    47.037979    47.037979    45.036105    99645.601   -1456.8804   -3418.7615    655.41803   -2763.3435 
 6370000    570.88094    46.966865    46.966865    44.968017     99194.34    1354.4277   -3421.4499    662.06319   -2759.3867 
 6375000    571.82072    46.913479    46.913479    44.916903     98856.47   -302.10619   -3424.2616    663.15308   -2761.1085 
 6380000    575.57861    46.852077    46.852077    44.858115    98468.816   -579.94282   -3432.5598    667.51119   -2765.0486 
 6385000    574.45512    46.925867    46.925867    44.928764    98934.802    330.22686   -3425.4572    666.20825    -2759.249 
 6390000    566.96694    46.968455    46.968455    44.969539    99204.413    138.50091   -3432.8838    657.52405   -2775.3597 
 6395000    576.93236    46.817162    46.817162    44.824685    98248.835   -41.776887   -3431.2716    669.08116   -2762.1904 
 6400000    568.92353    46.903837    46.903837    44.907671    98795.525    815.45687   -3418.4603    659.79314   -2758.6671 
 6405000    579.66593    46.940907    46.940907    44.943164    99029.958   -541.46689   -3423.7649    672.25134   -2751.5135 
 6410000    571.98155    46.903343    46.903343    44.907199    98792.408     76.02157   -3432.5439     663.3396   -2769.2043 
 6415000    568.17922    46.900943    46.900943      44.9049    98777.239   -1008.2945   -3423.0545    658.92995   -2764.1245 
 6420000    577.34108    46.925193    46.925193    44.928118    98930.535    556.50374   -3431.5982    669.55516    -2762.043 
 6425000    578.84057    46.868143    46.868143    44.873497     98570.15    1686.6249   -3429.2369    671.29416   -2757.9428 
 6430000    581.85167    46.930816    46.930816    44.933503    98966.107    206.63613   -3424.5696    674.78619   -2749.7834 
 6435000     564.1708    46.999803    46.999803    44.999554    99403.183   -262.43707   -3419.9898     654.2813   -2765.7085 
 6440000    562.14554    46.893551    46.893551    44.897823    98730.543   -215.57604   -3433.0842    651.93257   -2781.1516 
 6445000    568.06625     46.95254     46.95254    44.954302    99103.605    146.40622   -3423.0386    658.79894   -2764.2396 
 6450000    569.95802    47.078225    47.078225    45.074638    99901.593     -465.807   -3415.1537    660.99287   -2754.1608 
 6455000     567.1263    46.887237    46.887237    44.891778     98690.67   -363.42884    -3441.571    657.70886   -2783.8621 
 6460000    575.66468    46.956551    46.956551    44.958142    99129.004   -743.91087   -3434.0611    667.61101     -2766.45 
 6465000    568.37331    46.895816    46.895816    44.899992     98744.85     1524.176   -3425.6562    659.15505   -2766.5012 
 6470000    568.38293    46.932062    46.932062    44.934695    98973.988   -1498.9478   -3421.6518     659.1662   -2762.4856 
 6475000    569.18767    46.915077    46.915077    44.918433    98866.568    768.31512   -3434.6769    660.09947   -2774.5774 
 6480000    579.18377    46.918088    46.918088    44.921316    98885.606   -210.27001   -3434.8023    671.69218   -2763.1101 
 6485000    570.05933    46.970549    46.970549    44.971545    99217.684    1099.1002   -3426.6926    661.11036   -2765.5822 
 6490000    567.21359    46.987674    46.987674    44.987941    99326.243   -20.324459   -3411.9837    657.81009   -2754.1736 
 6495000    567.80664    46.935871    46.935871    44.938342     98998.09    -361.7393   -3427.1917    658.49787   -2768.6938 
 6500000    572.06705    46.942566    46.942566    44.944752    99040.458    693.83059   -3428.5701    663.43875   -2765.1314 
 6505000    573.56371    47.026908    47.026908    45.025505     99575.26   -1073.6522   -3430.5208    665.17447   -2765.3463 
 6510000    578.42757    46.899197    46.899197    44.903229    98766.209   -1058.8507    -3436.086    670.81519   -2765.2708 
 6515000    582.83812    46.896734    46.896734    44.900871    98750.651    92.774705   -3435.4375    675.93021   -2759.5073 
 6520000    578.79901    46.972806    46.972806    44.973705    99231.986    562.40267   -3420.4519    671.24596   -2749.2059 
 6525000    570.97371    46.937456    46.937456     44.93986    99008.119   -446.01221   -3416.7999    662.17079   -2754.6291 
 6530000    578.34516     46.99363     46.99363    44.993643    99364.019   -693.90617    -3435.691    670.71962   -2764.9714 
 6535000    578.20359    46.957689    46.957689    44.959232    99136.212   -532.35008   -3429.3515    670.55543    -2758.796 
 6540000    570.12615    46.965249    46.965249     44.96647    99184.098    215.35324   -3431.5471    661.18785   -2770.3593 
 6545000    578.82661    46.925102    46.925102    44.928032    98929.963    935.48178   -3429.7993    671.27797   -2758.5214 
 6550000    575.66414    46.931114    46.931114    44.933787    98967.988    541.29503   -3431.0357    667.61038   -2763.4253 
 6555000     582.6911    46.889427    46.889427    44.893874    98704.495    1198.9263   -3435.8224     675.7597   -2760.0627 
 6560000    572.51589    46.920326    46.920326    44.923458    98899.755     56.19121   -3425.0926    663.95929   -2761.1333 
 6565000    572.65971    46.968108    46.968108    44.969207    99202.214    1102.3366   -3429.7241    664.12607    -2765.598 
 6570000     569.8634    46.949462    46.949462    44.951355    99084.116   -282.24474   -3438.0262    660.88314   -2777.1431 
 6575000     571.2809    47.002066    47.002066     45.00172    99417.537    56.426216    -3423.287    662.52704     -2760.76 
 6580000    575.31284    47.005318    47.005318    45.004833    99438.176    -944.0554   -3422.6706    667.20296   -2755.4676 
 6585000    568.69603    46.906182    46.906182    44.909916    98810.342   -550.19811   -3433.8327    659.52931   -2774.3034 
 6590000    568.45068    46.878917    46.878917    44.883812     98638.14    1342.4796   -3432.0392    659.24478   -2772.7944 
 6595000    571.56941    46.988725    46.988725    44.988947    99332.909   -667.89267   -3426.2177    662.86163   -2763.3561 
 6600000    573.92518    46.875123    46.875123    44.880179    98614.192    746.73597   -3434.1291    665.59366   -2768.5355 
 6605000    568.02543    46.897307    46.897307    44.901419    98754.266    1619.2659   -3433.3588     658.7516   -2774.6072 
 6610000    573.55748    46.923166    46.923166    44.926177    98917.715   -767.50762   -3434.0983    665.16724   -2768.9311 
 6615000    570.08063    46.988783    46.988783    44.989002    99333.276    -674.9023   -3426.5208    661.13506   -2765.3857 
 6620000    578.56559    46.969803    46.969803     44.97083    99212.954   -124.25429    -3433.132    670.97526   -2762.1567 
 6625000    573.39163    47.028268    47.028268    45.026807    99583.897    1017.8531   -3422.6941     664.9749   -2757.7192 
 6630000     572.3389    46.958585    46.958585    44.960089    99141.883     143.1089   -3437.4236    663.75402   -2773.6696 
 6635000    573.57912    46.923495    46.923495    44.926493    98919.798   -86.859174   -3422.7961    665.19233   -2757.6037 
 6640000    564.59268    46.969652    46.969652    44.970685    99211.996   -549.91882   -3430.2066    654.77056    -2775.436 
 6645000    568.84265    46.939652    46.939652    44.941962    99022.014    534.53289   -3429.3097    659.69934   -2769.6103 
 6650000    576.02462    46.930823    46.930823    44.933509    98966.153    213.10739   -3445.9687    668.02844   -2777.9403 
 6655000    579.12197    46.934151    46.934151    44.936696    98987.207    543.06352   -3421.4822     671.6205   -2749.8617 
 6660000    569.56553    46.941393    46.941393    44.943629    99033.035    391.50552   -3430.4243    660.53768   -2769.8866 
 6665000    568.79806    46.948396    46.948396    44.950334    99077.366    849.83568   -3438.8175    659.64763   -2779.1699 
 6670000    577.98828    46.847074    46.847074    44.853324    98437.271    1439.9032   -3437.3633    670.30574   -2767.0576 
 6675000    577.79209    47.040123    47.040123    45.038158    99659.229    226.77814   -3423.8106    670.07821   -2753.7324 
 6680000    577.31342     47.01046     47.01046    45.009757    99470.813   -203.47137   -3419.5055    669.52308   -2749.9824 
 6685000    582.85695     46.87412     46.87412    44.879219    98607.861    1386.5388   -3429.1231    675.95204   -2753.1711 
 6690000    572.05984      46.9455      46.9455    44.947562    99059.032    657.62953    -3431.151    663.43039   -2767.7206 
 6695000    577.12076    46.937245    46.937245    44.939657     99006.78    182.41881   -3432.2698    669.29966   -2762.9702 
 6700000     579.0744    47.027191    47.027191    45.025776    99577.058   -1386.2733   -3424.3718    671.56533   -2752.8064 
 6705000    570.11137    46.914005    46.914005    44.917407    98859.793   -98.098972   -3426.2969    661.17071   -2765.1262 
 6710000    570.36314    47.016963    47.016963    45.015983    99512.096   -475.75008   -3422.3653     661.4627   -2760.9026 
 6715000    575.58105    46.987614    46.987614    44.987883    99325.862   -229.65275   -3430.2815    667.51402   -2762.7675 
 6720000    577.50151    46.933241    46.933241    44.935824     98981.45    347.49338   -3434.4943    669.74122   -2764.7531 
 6725000    571.22963    46.855168    46.855168    44.861073    98488.302    108.49129   -3436.9989    662.46758   -2774.5313 
 6730000    572.91958    46.904077    46.904077    44.907901    98797.041    553.97675   -3433.3167    664.42745   -2768.8893 
 6735000    571.12824    47.016164    47.016164    45.015218    99507.028    -299.5686   -3406.0285    662.34999   -2743.6785 
 6740000    571.25785    46.849756    46.849756    44.855892    98454.179   -689.24282   -3421.5575    662.50031   -2759.0572 
 6745000    573.23874    47.003264    47.003264    45.002867    99425.139    40.890161   -3423.0241    664.79759   -2758.2266 
 6750000    568.45109     47.00909     47.00909    45.008445    99462.114   -2069.7225   -3425.7253    659.24525     -2766.48 
 6755000    570.05784    46.924394    46.924394    44.927354    98925.485    -661.3479   -3433.0216    661.10863    -2771.913 
 6760000    575.11898    46.865997    46.865997    44.871442     98556.61    925.76598   -3426.8646    666.97814   -2759.8864 
 6765000    580.12632    46.923228    46.923228    44.926237    98918.111    651.79873   -3430.8089    672.78527   -2758.0236 
 6770000     568.7077    47.015856    47.015856    45.014923    99505.067    -806.2802   -3428.5186    659.54284   -2768.9758 
 6775000    570.10244    46.913373    46.913373    44.916801    98855.796   -285.11916   -3430.8338    661.16036   -2769.6734 
 6780000    573.04685     46.88564     46.88564    44.890249    98680.584    11.454261   -3428.4616    664.57505   -2763.8866 
 6785000    575.25354    47.015181    47.015181    45.014277    99500.784   -1722.6002   -3434.2303     667.1342   -2767.0961 
 6790000    572.34383    46.926295    46.926295    44.929173    98937.505    373.10525   -3432.5686    663.75974   -2768.8088 
 6795000     571.6323    46.956232    46.956232    44.957837    99126.985    127.28692   -3429.5423    662.93456   -2766.6077 
 6800000    581.06395    46.899164    46.899164    44.903197    98765.999    2369.2691   -3409.8752    673.87265   -2736.0026 
 6805000    573.02155     46.94589     46.94589    44.947935      99061.5   -28.149057   -3424.3695    664.54571   -2759.8238 
 6810000    574.11479    46.929703    46.929703    44.932437    98959.066    1224.8679   -3424.8109    665.81356   -2758.9973 
 6815000    574.74127     46.91709     46.91709     44.92036    98879.295    49.626467   -3435.1131     666.5401    -2768.573 
 6820000    570.85905    46.971946    46.971946    44.972881    99226.531   -245.62693   -3430.4096    662.03781   -2768.3718 
 6825000    571.09452    46.954775    46.954775    44.956441    99117.754   -901.29385   -3432.0167    662.31089   -2769.7058 
 6830000     573.3794    46.877993    46.877993    44.882928    98632.309    702.22209   -3436.7663    664.96071   -2771.8056 
 6835000    573.65249    46.988865    46.988865    44.989081    99333.796   -656.13801   -3435.8886    665.27742   -2770.6112 
 6840000    566.18158    47.036698    47.036698    45.034878     99637.46    293.53392   -3421.3252    656.61325   -2764.7119 
 6845000    578.94278    46.897154    46.897154    44.901273    98753.303    -209.6024   -3437.0191    671.41269   -2765.6064 
 6850000    572.04826    46.942353    46.942353    44.944548     99039.11    1327.4487   -3419.2067    663.41696   -2755.7897 
 6855000     576.1723    46.863967    46.863967    44.869498    98543.803   -968.21654   -3437.2176    668.19971   -2769.0179 
 6860000    574.91965    46.974448    46.974448    44.975277     99242.39    669.83957   -3420.8943    666.74698   -2754.1473 
 6865000    570.86427    46.953701    46.953701    44.955414    99110.956    -679.0844   -3436.2324    662.04387   -2774.1886 
 6870000     585.5824    46.908943    46.908943     44.91256    98827.794    1138.8411   -3432.1676    679.11281   -2753.0548 
 6875000    574.28232    46.931584    46.931584    44.934238    98970.965    803.00096   -3438.5386    666.00785   -2772.5307 
 6880000    570.01319    46.925172    46.925172    44.928098    98930.401   -348.91149   -3424.6071    661.05685   -2763.5502 
 6885000    567.15116    46.890308    46.890308    44.894718    98710.059    120.49486   -3430.3464    657.73768   -2772.6087 
 6890000     577.1349    46.906337    46.906337    44.910065    98811.325   -1252.0645   -3438.9019    669.31605   -2769.5859 
 6895000    574.38249    46.938106    46.938106    44.940482    99012.229    974.92918   -3418.8451    666.12402   -2752.7211 
 6900000    570.63286    46.878964    46.878964    44.883857    98638.435   -434.85562    -3436.152    661.77549   -2774.3765 
 6905000    567.57238    46.852088    46.852088    44.858125    98468.887   -552.56887   -3432.2425    658.22619   -2774.0164 
 6910000    562.50888    46.932737    46.932737    44.935342     98978.26    1421.3878   -3425.8854    652.35394   -2773.5315 
 6915000    574.70288    46.955126    46.955126    44.956778    99119.977    282.93185   -3428.8709    666.49558   -2762.3753 
 6920000    575.84218    46.922111    46.922111    44.925168    98911.045   -770.09679   -3429.5237    667.81685   -2761.7068 
 6925000    573.74493    46.911452    46.911452    44.914962    98843.652   -1060.0998   -3424.1938    665.38463   -2758.8091 
 6930000    570.34637    47.019354    47.019354    45.018272    99527.283    -1645.153    -3423.879    661.44325   -2762.4358 
 6935000    577.11867    46.990624    46.990624    44.990765    99344.954   -372.46084    -3423.556    669.29723   -2754.2588 
 6940000    567.99523    46.941792    46.941792    44.944011    99035.561    319.75938   -3422.0803    658.71657   -2763.3637 
 6945000    577.45572     46.94053     46.94053    44.942803     99027.57   -916.67344   -3433.9108    669.68812   -2764.2227 
 6950000    574.70747    46.932029    46.932029    44.934664    98973.781   -53.463736   -3422.9985     666.5009   -2756.4976 
 6955000    572.43423    46.897686    46.897686    44.901782    98756.665    409.89907   -3422.5838    663.86459   -2758.7192 
 6960000    580.22567    46.853814    46.853814    44.859778    98479.768    1061.3639   -3437.3961    672.90049   -2764.4956 
 6965000    577.38128    46.980318    46.980318    44.980898    99279.601   -525.35418   -3433.0658    669.60178    -2763.464 
 6970000     574.6875    46.914346    46.914346    44.917733    98861.947   -1073.4305   -3419.2231    666.47775   -2752.7453 
 6975000    565.65104    46.981246    46.981246    44.981786    99285.483   -1075.7353   -3420.1052    655.99797   -2764.1073 
 6980000     577.0688    47.057533    47.057533    45.054827    99769.924   -1558.1554   -3417.7318    669.23939   -2748.4924 
 6985000    579.26116    47.037642    47.037642    45.035782    99643.457     1748.216   -3421.8161    671.78192   -2750.0342 
 6990000    571.97403    47.015137    47.015137    45.014234    99500.502   -414.58646   -3427.1213    663.33087   -2763.7904 
 6995000    570.43544    46.996262    46.996262    44.996163    99380.716    988.24917   -3429.3329    661.54655   -2767.7864 
 7000000    573.04544    47.013762    47.013762    45.012918    99491.775    754.83418   -3430.5859    664.57341   -2766.0125 
Loop time of 43846.2 on 24 procs for 2000000 steps with 8973 atoms

Performance: 1.971 ns/day, 12.179 hours/ns, 45.614 timesteps/s
70.4% CPU use with 24 MPI tasks x 1 OpenMP threads

MPI task timing breakdown:
Section |  min time  |  avg time  |  max time  |%varavg| %total
---------------------------------------------------------------
Pair    | 22082      | 35586      | 41137      |3583.9 | 81.16
Bond    | 106.55     | 649.51     | 13069      |10161.4 |  1.48
Kspace  | 1397.8     | 6411.5     | 20449      |8017.1 | 14.62
Neigh   | 296.59     | 297.72     | 299.07     |   4.6 |  0.68
Comm    | 616.28     | 626.25     | 635.11     |  19.5 |  1.43
Output  | 1.9486     | 1.9704     | 1.9721     |   0.3 |  0.00
Modify  | 194.99     | 211.24     | 240.25     | 102.2 |  0.48
Other   |            | 62.04      |            |       |  0.14

Nlocal:    373.875 ave 389 max 343 min
Histogram: 1 0 0 1 3 3 6 2 3 5
Nghost:    11202.5 ave 11267 max 11130 min
Histogram: 3 0 0 6 4 1 2 3 2 3
Neighs:    346784 ave 380804 max 299514 min
Histogram: 1 1 2 0 5 4 4 2 1 4

Total # of neighbors = 8322808
Ave neighs/atom = 927.539
Ave special neighs/atom = 2.45938
Neighbor list builds = 28795
Dangerous builds = 0

undump		1
unfix		3

fix	4	all npt	temp	${T3}	${T3}	0.1	iso	${Pre}	${Pre}	0.5
fix	4	all npt	temp	573	${T3}	0.1	iso	${Pre}	${Pre}	0.5
fix	4	all npt	temp	573	573	0.1	iso	${Pre}	${Pre}	0.5
fix	4	all npt	temp	573	573	0.1	iso	1	${Pre}	0.5
fix	4	all npt	temp	573	573	0.1	iso	1	1	0.5

compute	2	all	rdf	250	1	1	1	2	2	2	4	1	4	2
fix	rdf	all	ave/time	100	10000	1000000	c_2[*]	file grhot.txt	mode	vector

run		1000000
PPPM initialization ...
  using 12-bit tables for long-range coulomb (../kspace.cpp:332)
  G vector (1/distance) = 0.188159
  grid = 20 20 20
  stencil order = 5
  estimated absolute RMS force accuracy = 0.000707057
  estimated relative force accuracy = 4.91024e-05
  using single precision MKL FFT
  3d grid and FFT values/proc = 1950 400
Neighbor list info ...
  update every 1 steps, delay 10 steps, check yes
  max neighbors/atom: 2000, page size: 100000
  master list distance cutoff = 17
  ghost atom cutoff = 17
  binsize = 8.5, bins = 6 6 6
  3 neighbor lists, perpetual/occasional/extra = 1 2 0
  (1) pair buck/coul/long, perpetual
      attributes: half, newton on
      pair build: half/bin/newton
      stencil: half/bin/3d/newton
      bin: standard
  (2) compute rdf, occasional, copy from (1)
      attributes: half, newton on
      pair build: copy
      stencil: none
      bin: none
  (3) compute rdf, occasional, copy from (1)
      attributes: half, newton on
      pair build: copy
      stencil: none
      bin: none
Per MPI rank memory allocation (min/avg/max) = 12.37 | 12.38 | 12.38 Mbytes
Step Temp Lx Ly Lz Volume Press PotEng KinEng TotEng 
 7000000    573.04544    47.013762    47.013762    45.012918    99491.775    755.37462   -3430.5874    664.57341    -2766.014 
 7005000    574.26512    46.910529    46.910529    44.914079    98837.822    1143.4388   -3428.0219    665.98791   -2762.0339 
 7010000    573.53071    46.904046    46.904046    44.907871    98796.847    1122.6587   -3440.4743     665.1362   -2775.3381 
 7015000    576.44435    46.992518    46.992518    44.992578    99356.961    879.52767   -3425.6009    668.51521   -2757.0857 
 7020000     572.4516    46.930316    46.930316    44.933024    98962.944    724.99869   -3429.6235    663.88473   -2765.7387 
 7025000    573.52052    46.989348    46.989348    44.989543     99336.86    894.18206   -3423.5531    665.12438   -2758.4288 
 7030000    572.77129    46.900378    46.900378    44.904359    98773.669    1848.6923   -3433.4661    664.25547   -2769.2106 
 7035000     581.3239    46.879167    46.879167    44.884052     98639.72    579.95097   -3426.0584    674.17412   -2751.8843 
 7040000    574.38017    46.939249    46.939249    44.941576    99019.466    -636.1717   -3444.3931    666.12133   -2778.2718 
 7045000    577.32745    46.926647    46.926647     44.92951    98939.732    2271.3479   -3422.1884    669.53936    -2752.649 
 7050000    560.37026    46.957095    46.957095    44.958663    99132.447   -178.27676   -3433.6808    649.87373   -2783.8071 
 7055000    571.77925    46.950658    46.950658      44.9525    99091.684     214.9739   -3426.8174    663.10499   -2763.7124 
 7060000    574.36897    47.028129    47.028129    45.026674    99583.017    -710.5531   -3430.6149    666.10834   -2764.5066 
 7065000    573.72979    46.905486    46.905486     44.90925    98805.944   -42.630186   -3442.2111    665.36708    -2776.844 
 7070000      574.173    46.875562    46.875562    44.880599    98616.962   -142.16441   -3434.6219    665.88107   -2768.7409 
 7075000    572.93276    47.013945    47.013945    45.013093    99492.935    147.18662    -3432.821    664.44273   -2768.3782 
 7080000     582.7116    46.950353    46.950353    44.952207    99089.751    1156.7422    -3417.822    675.78347   -2742.0385 
 7085000    568.60954    46.884521    46.884521    44.889178     98673.52    521.37597   -3438.9102      659.429   -2779.4812 
 7090000    570.26655    46.860884    46.860884    44.866546    98524.353   -1500.7904   -3435.5178    661.35068   -2774.1672 
 7095000    573.08468    46.908121    46.908121    44.911773    98822.597    1655.4542   -3432.8413    664.61892   -2768.2224 
 7100000    582.44976     47.08741     47.08741    45.083431    99960.072      394.816   -3415.6719    675.47981   -2740.1921 
 7105000    569.24768    46.982215    46.982215    44.982713    99291.624    295.12333   -3418.9318    660.16907   -2758.7627 
 7110000    573.77659    46.970993    46.970993    44.971969    99220.495    1887.7603   -3431.6054    665.42135   -2766.1841 
 7115000    579.03427    46.912972    46.912972    44.916417    98853.261    700.23513   -3420.6871    671.51879   -2749.1683 
 7120000    571.40879    46.932446    46.932446    44.935063     98976.42    1053.4662      -3435.1    662.67535   -2772.4247 
 7125000    565.60662    46.982177    46.982177    44.982678    99291.388   -1140.1851   -3421.2982    655.94646   -2765.3517 
 7130000    574.34372    46.982315    46.982315     44.98281    99292.261    238.95284   -3425.6078    666.07906   -2759.5287 
 7135000    572.46916    46.959506    46.959506    44.960972     99147.72     844.6065   -3405.0905    663.90509   -2741.1854 
 7140000    568.06681    46.840274    46.840274    44.846813    98394.412    1778.2886   -3435.1521    658.79959   -2776.3525 
 7145000     569.3595    46.910053    46.910053    44.913623    98834.811    699.96844   -3429.1465    660.29875   -2768.8477 
 7150000    563.44835    46.881486    46.881486    44.886271    98654.355   -111.41976   -3412.2041    653.44346   -2758.7606 
 7155000    574.44563    46.935951    46.935951    44.938419    98998.594   -579.39131    -3418.022    666.19724   -2751.8247 
 7160000    572.17793    46.965654    46.965654    44.966857    99186.663    55.727823   -3411.4149    663.56735   -2747.8476 
 7165000    575.49032    46.871379    46.871379    44.876595    98590.565    1962.8475   -3429.7104    667.40879   -2762.3016 
 7170000    569.74872    46.948803    46.948803    44.950724     99079.94   -490.14021   -3426.5091    660.75014   -2765.7589 
 7175000    574.76057    46.901785    46.901785    44.905707     98782.56    1041.2598   -3436.0026     666.5625   -2769.4401 
 7180000    582.66116    46.846729    46.846729    44.852994      98435.1    953.10704   -3436.9537    675.72498   -2761.2288 
 7185000    571.94093    46.970319    46.970319    44.971324    99216.222    487.12277   -3429.9342     663.2925   -2766.6417 
 7190000    571.43718    47.017784    47.017784    45.016769    99517.314   -1262.5892   -3418.1567    662.70828   -2755.4484 
 7195000    567.94177    46.942128    46.942128    44.944333    99037.684   -1551.6007   -3418.9625    658.65457   -2760.3079 
 7200000    576.75162    46.909422    46.909422    44.913018    98830.821   -2037.5798   -3433.4676    668.87155   -2764.5961 
 7205000    570.77935    46.952442    46.952442    44.954208    99102.984     203.1714   -3421.8987    661.94539   -2759.9533 
 7210000    570.87322    46.893217    46.893217    44.897503    98728.432   -1249.4445   -3441.8904    662.05425   -2779.8361 
 7215000    576.86009    46.892695    46.892695    44.897003    98725.134   -174.56794   -3430.0631    668.99735   -2761.0658 
 7220000    573.78842    46.980449    46.980449    44.981023    99280.433   -1545.4806   -3428.0001    665.43507   -2762.5651 
 7225000    575.34194    46.904222    46.904222     44.90804     98797.96   -773.67313   -3426.9422    667.23672   -2759.7054 
 7230000    568.59928     46.82923     46.82923     44.83624    98324.834    277.35003   -3436.3235     659.4171   -2776.9064 
 7235000    564.77299    46.928639    46.928639    44.931418    98952.332    95.749222   -3434.5276    654.97967   -2779.5479 
 7240000    565.22505    46.843462    46.843462    44.849866    98414.506    926.07689   -3436.0232    655.50393   -2780.5192 
 7245000    566.90719    47.013942    47.013942    45.013091    99492.918    -64.90839   -3440.2178    657.45475    -2782.763 
 7250000    567.91237     46.96301     46.96301    44.964326    99169.915   -769.40912   -3434.5891    658.62048   -2775.9686 
 7255000    573.82059    46.974398    46.974398     44.97523    99242.076   -520.44228   -3437.9276    665.47237   -2772.4552 
 7260000    569.03277    46.927689    46.927689    44.930508    98946.326    347.84573   -3428.0938    659.91984    -2768.174 
 7265000    572.46156    46.804235    46.804235    44.812308    98167.475    1156.0262   -3440.1014    663.89627   -2776.2051 
 7270000    573.58221    46.893806    46.893806    44.898067    98732.152    1098.4031   -3437.3781    665.19592   -2772.1822 
 7275000    573.72136    46.919435    46.919435    44.922605    98894.122    665.75934   -3423.4858     665.3573   -2758.1285 
 7280000    576.39366    46.918807    46.918807    44.922005    98890.154    120.59106   -3424.7176    668.45642   -2756.2612 
 7285000    577.00465    46.925098    46.925098    44.928027    98929.933    283.61102   -3419.7163      669.165   -2750.5513 
 7290000    562.50993    46.930653    46.930653    44.933346    98965.072    276.24635   -3429.2867    652.35516   -2776.9316 
 7295000     565.3161    46.877851    46.877851    44.882792    98631.413    77.266749   -3436.3331    655.60953   -2780.7235 
 7300000    576.30984    46.944725    46.944725    44.946819    99054.125    632.84343   -3421.3193    668.35921     -2752.96 
 7305000    569.92495    46.984688    46.984688    44.985081    99307.305     234.8734    -3419.598    660.95452   -2758.6434 
 7310000    582.33347     47.01658     47.01658    45.015616    99509.663    -426.1477   -3427.7147    675.34495   -2752.3698 
 7315000    576.17347    47.031153    47.031153    45.029569    99602.224   -1501.3738   -3408.4513    668.20107   -2740.2502 
 7320000    577.70391    46.922748    46.922748    44.925778    98915.074   -1084.2333   -3434.3063    669.97594   -2764.3304 
 7325000    583.96518    46.959659    46.959659    44.961118    99148.688   -1044.7567   -3428.3833    677.23728    -2751.146 
 7330000     571.4402    46.911577    46.911577    44.915082    98844.444    1275.4127    -3437.937    662.71179   -2775.2252 
 7335000    573.53919    47.003332    47.003332    45.002932    99425.574    866.87292   -3429.7118    665.14603   -2764.5657 
 7340000    568.01833     46.90205     46.90205     44.90596    98784.233   -1252.3381   -3424.5648    658.74336   -2765.8215 
 7345000    568.30954    46.993984    46.993984    44.993981     99366.26    -876.7415   -3425.0451    659.08108    -2765.964 
 7350000    569.75907    46.949272    46.949272    44.951173     99082.91    318.89234   -3423.7464    660.76215   -2762.9843 
 7355000    568.88007     47.03799     47.03799    45.036115     99645.67   -301.73793   -3413.8459    659.74274   -2754.1032 
 7360000    568.21131    46.911816    46.911816    44.915311    98845.955   -300.87716   -3436.6884    658.96717   -2777.7212 
 7365000    577.57053    46.910243    46.910243    44.913805    98836.014    1650.5388   -3429.4442    669.82127   -2759.6229 
 7370000     573.1437     46.93556     46.93556    44.938044    98996.119    651.82469   -3423.1093    664.68736    -2758.422 
 7375000    568.65439    46.968286    46.968286    44.969378    99203.343    432.97316   -3424.6203    659.48102   -2765.1393 
 7380000    566.33436    47.020595    47.020595    45.019461    99535.163   -403.81517   -3428.8458    656.79043   -2772.0554 
 7385000    574.69616    46.886529    46.886529      44.8911    98686.198    1303.3267   -3430.7315     666.4878   -2764.2437 
 7390000    565.82976      46.9431      46.9431    44.945264    99043.841   -894.26179    -3425.912    656.20524   -2769.7068 
 7395000    581.81084    46.956336    46.956336    44.957936    99127.638    68.104943    -3428.321    674.73884   -2753.5822 
 7400000    571.35906    46.937686    46.937686    44.940079    99009.571    639.73758   -3438.9208    662.61768   -2776.3031 
 7405000    574.79271    46.959408    46.959408    44.960878      99147.1   -182.41532    -3431.693    666.59976   -2765.0932 
 7410000    567.41292    46.889848    46.889848    44.894278    98707.156    1052.7211   -3436.7247    658.04126   -2778.6835 
 7415000    568.40747    47.015674    47.015674    45.014749    99503.916   -1843.1914    -3418.415    659.19466   -2759.2204 
 7420000    576.01307    46.863276    46.863276    44.868837    98539.445    1060.5456   -3415.1745    668.01505   -2747.1595 
 7425000    571.59883    46.872317    46.872317    44.877493    98596.483    838.20912   -3428.0622    662.89575   -2765.1664 
 7430000    568.33057    46.974638    46.974638     44.97546    99243.599   -474.05083   -3419.4141    659.10548   -2760.3086 
 7435000    580.50916    47.006265    47.006265    45.005741    99444.189   -371.98742   -3419.8252    673.22926    -2746.596 
 7440000    572.40014    46.930248    46.930248    44.932958     98962.51   -711.37701   -3426.1245    663.82505   -2762.2995 
 7445000    573.12701    46.926523    46.926523    44.929392     98938.95    1439.7098   -3425.7683    664.66801   -2761.1003 
 7450000    574.01708    47.061406    47.061406    45.058534    99794.557   -823.36057    -3429.158    665.70025   -2763.4577 
 7455000    571.37825    46.971989    46.971989    44.972923    99226.807    384.09634   -3438.5852    662.63994   -2775.9453 
 7460000    559.80576      46.9275      46.9275    44.930327    98945.127     3.516668   -3435.6589    649.21907   -2786.4398 
 7465000    565.86014    46.891432    46.891432    44.895795    98717.161    1620.7311   -3437.6058    656.24046   -2781.3654 
 7470000    575.30383    46.952624    46.952624    44.954382    99104.134   -885.33812    -3432.073    667.19252   -2764.8805 
 7475000    569.47024    46.959899    46.959899    44.961348    99150.209    76.168615   -3424.5054    660.42718   -2764.0782 
 7480000    575.40336    47.048641    47.048641    45.046313    99713.375    1494.6606   -3429.1622    667.30795   -2761.8543 
 7485000    565.64059    46.994689    46.994689    44.994657    99370.737   -629.03892   -3423.0366    655.98585   -2767.0508 
 7490000    577.89518     46.89872     46.89872    44.902772    98763.195    223.17299   -3435.8681    670.19777   -2765.6704 
 7495000    575.43789    46.972299    46.972299    44.973219    99228.769    128.89268   -3418.8307    667.34799   -2751.4827 
 7500000    571.37104    46.984265    46.984265    44.984677    99304.626    1024.3002    -3427.932    662.63158   -2765.3004 
 7505000    571.99422    46.821981    46.821981    44.829299    98279.177    695.40772    -3436.156    663.35429   -2772.8017 
 7510000    572.72654    46.962428    46.962428    44.963769     99166.23   -912.79007   -3424.9498    664.20358   -2760.7462 
 7515000    572.58638    46.907369    46.907369    44.911053    98817.846      -672.37   -3440.0925    664.04103   -2776.0515 
 7520000    579.65317    46.959283    46.959283    44.960758    99146.309   -2408.9098   -3426.1534    672.23655   -2753.9168 
 7525000    566.81475    47.039587    47.039587    45.037644    99655.821    76.903027   -3422.4771    657.34755   -2765.1296 
 7530000    560.21893     46.91093     46.91093    44.914463    98840.356    266.46266   -3430.5069    649.69823   -2780.8086 
 7535000     578.7752    46.983824    46.983824    44.984254    99301.826   -183.54381   -3421.7928    671.21835   -2750.5745 
 7540000    573.12656    46.986782    46.986782    44.987086    99320.585   -715.91673   -3429.4519    664.66749   -2764.7844 
 7545000    577.61473    46.998413    46.998413    44.998223    99394.361     323.4751   -3429.1632    669.87252   -2759.2907 
 7550000    568.04889     46.95232     46.95232    44.954091    99102.209   -1000.4244   -3417.8145    658.77881   -2759.0357 
 7555000     569.6336    46.963679    46.963679    44.964966    99174.149   -1433.2113   -3417.9313    660.61663   -2757.3146 
 7560000    570.78807    47.010115    47.010115    45.009426     99468.62   -771.44199   -3424.6363     661.9555   -2762.6808 
 7565000    576.97326    46.931833    46.931833    44.934476    98972.541   -356.11208    -3437.221    669.12859   -2768.0924 
 7570000    575.99881    46.939336    46.939336     44.94166    99020.019   -527.48422    -3440.686     667.9985   -2772.6875 
 7575000    568.63793    46.848404    46.848404    44.854597    98445.655    637.25562   -3440.6247    659.46193   -2781.1628 
 7580000    572.84464    46.834075    46.834075    44.840878    98355.352     712.9494   -3438.9206    664.34055   -2774.5801 
 7585000    567.27073    46.907353    46.907353    44.911038    98817.744    -1898.362   -3443.3857    657.87636   -2785.5094 
 7590000    577.90684    46.859946    46.859946    44.865649    98518.439    309.18353   -3431.6559    670.21129   -2761.4446 
 7595000    571.97191    46.944042    46.944042    44.946166    99049.802   -71.954553   -3433.2071    663.32841   -2769.8787 
 7600000    567.16084    46.970828    46.970828    44.971811    99219.447   -949.19264   -3442.0171    657.74892   -2784.2681 
 7605000    578.63347    46.901889    46.901889    44.905806    98783.218    932.93783   -3424.5153    671.05398   -2753.4613 
 7610000    575.13196    46.925928    46.925928    44.928822    98935.185   -790.32075    -3431.789    666.99319   -2764.7958 
 7615000    567.21883    46.961152    46.961152    44.962547    99158.143    69.199025    -3436.683    657.81616   -2778.8668 
 7620000    570.96247    46.897771    46.897771    44.901864    98757.201   -5.6585535   -3429.7072    662.15775   -2767.5495 
 7625000    577.29661     46.88773     46.88773     44.89225    98693.781   -364.88755   -3434.2203    669.50359   -2764.7167 
 7630000     560.9411    46.930231    46.930231    44.932942    98962.405   -2419.5557   -3426.7796    650.53575   -2776.2439 
 7635000    572.60711    46.882077    46.882077    44.886837    98658.086   -113.85429   -3431.2181    664.06508    -2767.153 
 7640000    575.05783    46.923161    46.923161    44.926173    98917.684    698.48733    -3436.031    666.90723   -2769.1238 
 7645000     575.5284    46.829333    46.829333    44.836338    98325.482    1946.5846   -3422.1011    667.45296   -2754.6481 
 7650000    569.30294     46.93809     46.93809    44.940467    99012.131   -1402.8293   -3425.6868    660.23316   -2765.4536 
 7655000    571.24652     46.95265     46.95265    44.954407    99104.295   -956.59088   -3429.4394    662.48717   -2766.9522 
 7660000    573.40814    46.954248    46.954248    44.955937     99114.42   -33.533378   -3434.5044    664.99405   -2769.5103 
 7665000    574.92382    46.791299    46.791299    44.799923      98086.1    1327.7573   -3437.9566    666.75181   -2771.2048 
 7670000    573.42338    46.990958    46.990958    44.991085    99347.069   -1987.4071    -3419.558    665.01172   -2754.5463 
 7675000    577.49411    46.939982    46.939982    44.942278    99024.106    1390.9191   -3432.1598    669.73264   -2762.4272 
 7680000    566.17441    46.851209    46.851209    44.857283    98463.343   -524.20607   -3432.8452    656.60493   -2776.2402 
 7685000    575.86725    46.987292    46.987292    44.987575    99323.822   -696.19622   -3427.5754    667.84594   -2759.7295 
 7690000    582.30953    46.821938    46.821938    44.829258    98278.908    158.06883   -3439.7844    675.31719   -2764.4672 
 7695000    580.94416    46.864746    46.864746    44.870244    98548.713    369.91585   -3425.2036    673.73373   -2751.4699 
 7700000    567.61591    46.838957    46.838957    44.845553    98386.115   -736.00945   -3427.1038    658.27667   -2768.8271 
 7705000     576.3768    46.847141    46.847141    44.853388    98437.696    514.49794   -3433.7898    668.43686    -2765.353 
 7710000    570.71499    46.866426    46.866426    44.871853    98559.317    921.82725   -3434.7511    661.87074   -2772.8804 
 7715000     576.5024     46.94039     46.94039    44.942669    99026.684   -559.06002    -3429.419    668.58253   -2760.8364 
 7720000    572.36852    46.911454    46.911454    44.914965    98843.668    33.986808   -3426.2178    663.78837   -2762.4294 
 7725000    568.79026    46.869761    46.869761    44.875045    98580.354   -659.56051   -3434.4389    659.63859   -2774.8003 
 7730000    566.50352    46.981237    46.981237    44.981777    99285.426   -351.06432    -3425.062    656.98661   -2768.0754 
 7735000    564.09302    46.908924    46.908924    44.912541    98827.672    1158.3301   -3430.1532     654.1911   -2775.9621 
 7740000    581.56789     46.87113     46.87113    44.876357    98588.997   -216.11491   -3430.5574    674.45709   -2756.1003 
 7745000    577.31716    46.949584    46.949584    44.951472    99084.887    571.63122   -3431.2832    669.52742   -2761.7558 
 7750000    578.15907    46.930706    46.930706    44.933397    98965.408    12.864723   -3439.8918    670.50381    -2769.388 
 7755000    569.56994    46.912477    46.912477    44.915944    98850.136   -113.19592   -3425.5895    660.54281   -2765.0467 
 7760000    579.17474    46.949755    46.949755    44.951635    99085.969    23.223078   -3433.0114     671.6817   -2761.3297 
 7765000    574.81531    46.936077    46.936077    44.938539    98999.392   -855.96917   -3426.4185    666.62597   -2759.7926 
 7770000    573.54138    47.025194    47.025194    45.023864    99564.371   -685.47404   -3432.7866    665.14857    -2767.638 
 7775000    572.89754    46.869243    46.869243     44.87455    98577.086    485.02267    -3432.073    664.40189   -2767.6711 
 7780000    572.50428    46.990096    46.990096    44.990259    99341.602   -710.98873   -3426.9631    663.94582   -2763.0173 
 7785000    569.81204    46.917243    46.917243    44.920506    98880.261    1493.7259   -3431.8425    660.82357    -2771.019 
 7790000    576.08825     46.87697     46.87697    44.881948    98625.853    305.48967   -3435.4203    668.10223   -2767.3181 
 7795000    565.61205    46.883753    46.883753    44.888442    98668.669    -838.9792   -3438.9673    655.95275   -2783.0145 
 7800000    572.70712    46.934343    46.934343    44.936879    98988.422    238.19769   -3437.8372    664.18105   -2773.6561 
 7805000    572.53585    47.056896    47.056896    45.054216    99765.869     252.5895   -3421.4336    663.98243   -2757.4512 
 7810000    575.01051    46.955487    46.955487    44.957123    99122.265    910.07709   -3424.4893    666.85235   -2757.6369 
 7815000    577.25198    47.006587    47.006587    45.006048    99446.228    574.75555   -3428.3006    669.45183   -2758.8487 
 7820000    569.53337    47.052085    47.052085     45.04961    99735.272   -91.841031   -3427.0123    660.50039   -2766.5119 
 7825000    571.50145    46.909161    46.909161    44.912769    98829.175   -795.75192    -3426.996    662.78281   -2764.2132 
 7830000    571.00119    46.914215    46.914215    44.917608    98861.122   -570.41452   -3419.1205    662.20265   -2756.9178 
 7835000    575.19073    46.860066    46.860066    44.865764    98519.196    339.48841   -3429.9359    667.06136   -2762.8745 
 7840000    575.10804    46.930701    46.930701    44.933392     98965.38    412.98304   -3427.5913    666.96546   -2760.6259 
 7845000    576.87222    46.980131    46.980131    44.980719    99278.416   -674.64019   -3431.8476    669.01142   -2762.8362 
 7850000    568.99357    46.862017    46.862017    44.867631    98531.497    629.43715   -3422.8504    659.87437   -2762.9761 
 7855000    563.17342    46.896043    46.896043    44.900209    98746.284   -832.32767   -3425.0316    653.12462    -2771.907 
 7860000    570.12859    46.897459    46.897459    44.901565    98755.232   -26.679364   -3433.9075    661.19068   -2772.7168 
 7865000    569.00841     46.94486     46.94486    44.946949     99054.98   -182.94842   -3437.0602    659.89158   -2777.1686 
 7870000    579.96746    46.937023    46.937023    44.939446    99005.381    1606.3239   -3432.5377    672.60104   -2759.9367 
 7875000    574.17302    46.927944    46.927944    44.930752    98947.938     312.3976   -3428.2518    665.88109   -2762.3707 
 7880000    576.90083    46.903547    46.903547    44.907394    98793.694    1238.0349   -3437.8638     669.0446   -2768.8192 
 7885000    571.38814    46.944017    46.944017    44.946142    99049.644   -126.94304   -3431.0748    662.65141   -2768.4234 
 7890000    582.62513     46.94564     46.94564    44.947696    99059.918    296.89186   -3426.8521    675.68319   -2751.1689 
 7895000    574.82246    46.923132    46.923132    44.926145    98917.501    672.46533   -3432.3799    666.63426   -2765.7457 
 7900000    575.82358    46.969999    46.969999    44.971017    99214.193   -390.24534   -3415.8974    667.79529   -2748.1021 
 7905000    569.12706    46.916035    46.916035     44.91935    98872.626   -50.504181   -3422.7558    660.02918   -2762.7266 
 7910000     570.6011    46.924871    46.924871     44.92781    98928.498   -1587.3382    -3433.722    661.73866   -2771.9833 
 7915000    574.96231     47.00849     47.00849    45.007871     99458.31   -1312.5094   -3421.5936    666.79645   -2754.7971 
 7920000    578.31363    46.934081    46.934081    44.936628    98986.762   -1309.7355   -3424.3653    670.68306   -2753.6823 
 7925000    576.14538     46.86632     46.86632    44.871751    98558.648    371.13526   -3428.7134    668.16849   -2760.5449 
 7930000     575.9313    46.928317    46.928317     44.93111    98950.298   -496.42538   -3430.8173    667.92021   -2762.8971 
 7935000     569.8515    46.865522    46.865522    44.870987     98553.61   -782.30137   -3427.0123    660.86933    -2766.143 
 7940000    580.99137    46.894128    46.894128    44.898376    98734.189    848.08621   -3420.9236    673.78848   -2747.1351 
 7945000    574.80008    46.958168    46.958168     44.95969    99139.242    446.51489   -3417.9961    666.60831   -2751.3878 
 7950000    571.59539    46.968693    46.968693    44.969767     99205.92    1020.8027   -3426.8065    662.89177   -2763.9148 
 7955000     569.5645    46.962061    46.962061    44.963417    99163.902    591.22164   -3433.3323    660.53649   -2772.7958 
 7960000    578.19183    46.973189    46.973189    44.974072    99234.414    929.44109   -3423.4983     670.5418   -2752.9565 
 7965000    570.03662    46.882059    46.882059     44.88682    98657.974    362.98646   -3434.8661    661.08402    -2773.782 
 7970000    567.33321    46.900011    46.900011    44.904008    98771.353    1548.9053   -3442.0684    657.94882   -2784.1196 
 7975000    578.48576    46.923518    46.923518    44.926515    98919.944    1204.4753    -3430.984    670.88267   -2760.1013 
 7980000     576.4403    46.997516    46.997516    44.997364    99388.672    242.49555   -3424.1297    668.51051   -2755.6192 
 7985000    568.98411    46.960143    46.960143    44.961581    99151.754   -327.80689   -3408.5851     659.8634   -2748.7217 
 7990000    573.45406    47.013686    47.013686    45.012845    99491.291   -1041.4142   -3418.2822    665.04731   -2753.2348 
 7995000    571.37218    47.060263    47.060263     45.05744    99787.287   -1074.0125   -3416.5664     662.6329   -2753.9335 
 8000000    572.27695    46.970716    46.970716    44.971704    99218.738    366.27549   -3431.9795    663.68218   -2768.2973 
Loop time of 15447.7 on 24 procs for 1000000 steps with 8973 atoms

Performance: 2.797 ns/day, 8.582 hours/ns, 64.735 timesteps/s
99.9% CPU use with 24 MPI tasks x 1 OpenMP threads

MPI task timing breakdown:
Section |  min time  |  avg time  |  max time  |%varavg| %total
---------------------------------------------------------------
Pair    | 11354      | 12918      | 14133      | 610.9 | 83.62
Bond    | 53.516     | 54.729     | 58.525     |  14.7 |  0.35
Kspace  | 661.95     | 1877.9     | 3439       |1602.1 | 12.16
Neigh   | 147.72     | 148.28     | 148.93     |   3.2 |  0.96
Comm    | 307.19     | 312.46     | 316.98     |  13.8 |  2.02
Output  | 0.079993   | 0.082257   | 0.12422    |   3.1 |  0.00
Modify  | 97.187     | 105.42     | 119.89     |  72.6 |  0.68
Other   |            | 30.96      |            |       |  0.20

Nlocal:    373.875 ave 397 max 352 min
Histogram: 2 0 4 3 2 3 5 2 2 1
Nghost:    11249.6 ave 11277 max 11199 min
Histogram: 2 2 1 0 0 1 5 4 4 5
Neighs:    347733 ave 376250 max 306571 min
Histogram: 2 1 2 0 2 5 3 2 3 4

Total # of neighbors = 8345587
Ave neighs/atom = 930.078
Ave special neighs/atom = 2.45938
Neighbor list builds = 14392
Dangerous builds = 0

unfix	4

write_restart	hot.restart
PPPM initialization ...
  using 12-bit tables for long-range coulomb (../kspace.cpp:332)
  G vector (1/distance) = 0.188207
  grid = 20 20 20
  stencil order = 5
  estimated absolute RMS force accuracy = 0.000705107
  estimated relative force accuracy = 4.8967e-05
  using single precision MKL FFT
  3d grid and FFT values/proc = 1950 400

write_data	hot.data	nocoeff
PPPM initialization ...
  using 12-bit tables for long-range coulomb (../kspace.cpp:332)
  G vector (1/distance) = 0.188207
  grid = 20 20 20
  stencil order = 5
  estimated absolute RMS force accuracy = 0.000705107
  estimated relative force accuracy = 4.8967e-05
  using single precision MKL FFT
  3d grid and FFT values/proc = 1950 400
Total wall time: 38:07:52
