LAMMPS (3 Mar 2020)
  using 1 OpenMP thread(s) per MPI task
# ***************** Initialization # basis  ***************

echo	both

units		metal
dimension	3
boundary	p   p   p
atom_style	full
atom_modify	map	hash

# ****************** read data  *****************

read_restart	npt.restart
  restoring atom style full from restart
  orthogonal box = (0.373825 1.09262 1.71305) to (51.9484 52.6672 51.0927)
  4 by 4 by 3 MPI processor grid
  restoring pair style buck/coul/long from restart
  restoring bond style harmonic from restart
  restoring angle style harmonic from restart
  restoring improper style harmonic from restart
  9000 atoms
  5400 bonds
  5400 angles
  1800 impropers
  3 = max # of 1-2 neighbors
  2 = max # of 1-3 neighbors
  2 = max # of 1-4 neighbors
  3 = max # of special neighbors
  special bonds CPU = 0.768055 secs
  read_restart CPU = 1.08621 secs

mass	1	6.940000	# Li
mass	2	14.006700	# n3
mass	3	15.999400	# o

# *******************  Define a few parameters  **********************

variable    T	equal  773			# melt temperature
variable    T2	equal  373			# cool temperature
variable    T3	equal  673			# cool temperature
variable	Pre	equal	1			# Pressure
variable	DT	equal  0.001			# timestep    1fs   (Read from the restart file)
variable	T_low	equal  950			# Heat sink
variable	T_high	equal  1050			# Heat source

# *********************  Potential  function setting  *****************

pair_style	buck/coul/long	25.0

pair_coeff	1	1	49.9328		0.342	0.4567
pair_coeff	1	2	270.2317	0.2984	2.2677
pair_coeff	1	3	367.2162	0.2815	2.269
pair_coeff	2	2	1462.4691	0.2646	11.2599
pair_coeff	2	3	1987.34		0.2513	11.2664
pair_coeff	3	3	2700.5838	0.2392	11.2729


kspace_style	pppm/stagger	1e-6

bond_style	harmonic
bond_coeff	1	22.80523256	1.2627	#N-O

angle_style	harmonic
angle_coeff	1	4.561046512	120.0	#O-N-O

improper_style	harmonic
improper_coeff	1	2.606312292	0.0	#O-N-O-O

timestep	${DT}
timestep	0.001

variable	Temp	equal	temp
variable	Etotal	equal	etotal
variable	Enth	equal	enthalpy

neighbor    0.3 bin
neigh_modify    every   1   delay   0   check   yes one 10000

# ****************  heat to capture the etotal and enthalpy  ********************
#fix		3	all	npt     temp	${T2}	${T2}	0.1	iso	${Pre}	${Pre}	0.5

#thermo_style 	custom	step	temp	lx	ly	lz	vol	pe	ke	etotal enthalpy
#thermo		5000

#dump		3	all	custom	500000	npt.dump	id	type	x	y	z
#dump_modify	3	sort	id

#run 1000000

#write_data  npt.data
#write_restart   npt.restart

#unfix   3
#undump  3

fix		4	all	npt     temp	${T2}	${T3}	0.1	iso	${Pre}	${Pre}	0.5
fix		4	all	npt     temp	373	${T3}	0.1	iso	${Pre}	${Pre}	0.5
fix		4	all	npt     temp	373	673	0.1	iso	${Pre}	${Pre}	0.5
fix		4	all	npt     temp	373	673	0.1	iso	1	${Pre}	0.5
fix		4	all	npt     temp	373	673	0.1	iso	1	1	0.5

thermo_style 	custom	step	temp	lx	ly	lz	vol	pe	ke	etotal enthalpy
thermo		5000

dump		4	all	custom	50000	heat.dump	id	type	x	y	z
dump_modify	4	sort	id

fix		totalE	all	ave/time   50   100   5000	v_Temp	v_Etotal	v_Enth	file	totalE.txt

restart	500000    Cp.restart

run		6000000
PPPM initialization ...
  using 12-bit tables for long-range coulomb (../kspace.cpp:332)
  G vector (1/distance) = 0.135849
  grid = 16 16 15
  stencil order = 5
  estimated absolute RMS force accuracy = 1.26543e-05
  estimated relative force accuracy = 8.78795e-07
  using single precision MKL FFT
  3d grid and FFT values/proc = 1100 96
Unused restart file global fix info:
  fix style: npt, fix ID: 3
Neighbor list info ...
  update every 1 steps, delay 0 steps, check yes
  max neighbors/atom: 10000, page size: 100000
  master list distance cutoff = 25.3
  ghost atom cutoff = 25.3
  binsize = 12.65, bins = 5 5 4
  1 neighbor lists, perpetual/occasional/extra = 1 0 0
  (1) pair buck/coul/long, perpetual
      attributes: half, newton on
      pair build: half/bin/newton
      stencil: half/bin/3d/newton
      bin: standard
Per MPI rank memory allocation (min/avg/max) = 13.26 | 19.02 | 21.26 Mbytes
Step Temp Lx Ly Lz Volume PotEng KinEng TotEng Enthalpy 
 2000000    376.25958    51.574552    51.574552    49.379607    131346.52   -4137.0412    437.66967   -3699.3716   -3671.4627 
 2005000    370.27564    51.581778    51.581778    49.386525    131401.73   -4150.7196    430.70908   -3720.0105   -3745.9773 
 2010000    372.82977    51.685363    51.685363    49.485702    132194.95   -4135.5106    433.68008   -3701.8305   -3727.0743 
 2015000    375.26471    51.575411    51.575411    49.380429    131353.08   -4146.0463    436.51243   -3709.5339   -3688.2895 
 2020000    379.97332    51.592156    51.592156    49.396462    131481.06   -4144.3907    441.98954   -3702.4012   -3668.7223 
 2025000    372.89114    51.564231    51.564231    49.369725    131267.68   -4139.9056    433.75147   -3706.1542   -3727.1249 
 2030000    376.80835    51.600351    51.600351    49.404308    131543.73   -4137.3839    438.30801   -3699.0759   -3672.3342 
 2035000    377.15949    51.579836    51.579836    49.384666    131386.89   -4135.7682    438.71646   -3697.0517   -3715.1013 
 2040000    378.06031     51.43346     51.43346     49.24452    130271.49   -4140.4469    439.76431   -3700.6826   -3692.1751 
 2045000    376.28381     51.50267     51.50267    49.310784    130798.09   -4132.7226    437.69785   -3695.0247    -3657.921 
 2050000    374.03475    51.569989    51.569989    49.375239    131311.66   -4143.5609    435.08173   -3708.4791   -3732.6217 
 2055000    380.55586    51.479849    51.479849    49.288934    130624.29   -4139.7048    442.66716   -3697.0377   -3677.7912 
 2060000    378.13039    51.447656    51.447656    49.258111    130379.39   -4139.5307    439.84582   -3699.6848   -3715.7421 
 2065000    380.78488    51.595913    51.595913    49.400059    131509.79   -4136.9394    442.93356   -3694.0058   -3674.8157 
 2070000    381.42292    51.507809    51.507809    49.315704    130837.24   -4136.6425    443.67574   -3692.9667   -3696.9474 
 2075000    379.10541    51.519383    51.519383    49.326786    130925.47   -4139.0335    440.97998   -3698.0536   -3714.0955 
 2080000    373.62364    51.456923    51.456923    49.266984    130449.86   -4136.9282    434.60352   -3702.3247   -3738.5482 
 2085000    382.45342    51.468693    51.468693    49.278253    130539.39   -4130.9934    444.87443    -3686.119   -3672.4849 
 2090000    385.76069    51.452054    51.452054    49.262322    130412.83   -4134.1088    448.72148   -3685.3873   -3712.1954 
 2095000    378.32781    51.484792    51.484792    49.293667    130661.92   -4134.4714    440.07547   -3694.3959   -3722.8874 
 2100000    375.61652    51.366243    51.366243    49.180164    129761.42   -4148.5805    436.92166   -3711.6589   -3706.6453 
 2105000    379.50768    51.423396    51.423396    49.234884    130195.04   -4137.4645    441.44791   -3696.0166   -3722.4764 
 2110000    380.16862    51.463813    51.463813    49.273581    130502.26   -4132.4668    442.21672   -3690.2501   -3670.3901 
 2115000    378.27322     51.47793     51.47793    49.287097    130609.69   -4136.6873    440.01197   -3696.6753   -3732.1186 
 2120000    380.64608    51.429159    51.429159    49.240401    130238.81   -4140.7723     442.7721   -3698.0002   -3681.0009 
 2125000    382.19452    51.430778    51.430778    49.241952    130251.12   -4126.3972    444.57326   -3681.8239   -3669.2714 
 2130000    378.12864    51.435654    51.435654     49.24662    130288.16   -4133.5091    439.84379   -3693.6653   -3726.9491 
 2135000    380.10263    51.416767    51.416767    49.228537    130144.69   -4130.1607    442.13996   -3688.0207   -3779.5698 
 2140000    381.54523    51.371347    51.371347     49.18505     129800.1   -4135.4768    443.81801   -3691.6588   -3739.3275 
 2145000    384.95168    51.461578    51.461578    49.271441    130485.26   -4133.6577    447.78043   -3685.8773   -3721.5873 
 2150000     373.5444    51.434593    51.434593    49.245604     130280.1   -4136.0966    434.51135   -3701.5853   -3697.8745 
 2155000    383.55671    51.389705    51.389705    49.202627     129939.3   -4131.0513    446.15779   -3684.8935   -3607.5036 
 2160000    384.13698    51.514913    51.514913    49.322506    130891.39   -4126.7378    446.83277    -3679.905   -3660.4227 
 2165000    381.58408    51.465965    51.465965    49.275641    130518.64   -4126.2393     443.8632   -3682.3761   -3668.8351 
 2170000    381.43613    51.535684    51.535684    49.342393    131049.78   -4129.7665    443.69111   -3686.0754   -3600.4324 
 2175000    377.98694    51.521991    51.521991    49.329283    130945.35   -4128.5209    439.67897    -3688.842   -3762.1682 
 2180000    384.49318    51.441695    51.441695    49.252404    130334.07   -4134.1845     447.2471   -3686.9374   -3715.7226 
 2185000    378.98923    51.513094    51.513094    49.320764    130877.52   -4133.8724    440.84484   -3693.0276   -3739.8554 
 2190000    383.12207    51.510976    51.510976    49.318737    130861.38   -4130.8652     445.6522    -3685.213   -3757.8976 
 2195000    380.03195    51.401399    51.401399    49.213823    130028.03   -4134.5717    442.05774   -3692.5139   -3668.1031 
 2200000    384.68826    51.431481    51.431481    49.242625    130256.46   -4129.8425    447.47402   -3682.3685   -3667.9488 
 2205000    382.09548    51.501787    51.501787    49.309939    130791.36   -4131.5706    444.45806   -3687.1125   -3714.4814 
 2210000    380.93988    51.440835    51.440835    49.251581    130327.54   -4131.8016    443.11386   -3688.6877   -3733.2714 
 2215000    377.94485    51.485979    51.485979    49.294804    130670.96   -4136.4115       439.63   -3696.7815    -3699.615 
 2220000    384.58672    51.433161    51.433161    49.244234    130269.22   -4128.3066     447.3559   -3680.9507   -3647.7122 
 2225000    383.37781    51.464049    51.464049    49.273807    130504.06    -4131.027    445.94969   -3685.0773   -3654.8811 
 2230000    383.63246    51.519736    51.519736    49.327124    130928.15   -4120.1516     446.2459   -3673.9057   -3614.8039 
 2235000    383.41186    51.441851    51.441851    49.252554    130335.26   -4130.2569    445.98929   -3684.2676   -3678.3843 
 2240000    380.02561    51.435741    51.435741    49.246704    130288.82   -4124.6102    442.05037   -3682.5599   -3679.8637 
 2245000    382.17377    51.468106    51.468106    49.277691    130534.92   -4128.5886    444.54913   -3684.0395    -3738.405 
 2250000    384.32343    51.423745    51.423745    49.235218    130197.68   -4125.3895    447.04964   -3678.3399   -3603.1689 
 2255000    386.34639     51.42687     51.42687     49.23821    130221.42   -4120.9047    449.40278   -3671.5019   -3730.6974 
 2260000    382.45861    51.321103    51.321103    49.136944    129419.62   -4127.4524    444.88046   -3682.5719   -3665.2275 
 2265000    386.47103    51.329985    51.329985    49.145448    129486.82   -4124.4808    449.54775   -3674.9331   -3701.2298 
 2270000     390.0001     51.37342     51.37342    49.187035    129815.81   -4133.2443    453.65281   -3679.5915   -3599.5869 
 2275000    392.00321    51.335213    51.335213    49.150454    129526.39   -4116.4282    455.98286   -3660.4454   -3706.8977 
 2280000    384.10582    51.301247    51.301247    49.117933    129269.46   -4126.9097    446.79652   -3680.1132   -3681.1912 
 2285000    391.63255    51.248233    51.248233    49.067175    128869.12   -4127.9913     455.5517   -3672.4396   -3618.0614 
 2290000    388.08482    51.312975    51.312975    49.129163    129358.14   -4122.3483    451.42494   -3670.9234   -3725.0744 
 2295000    386.43784    51.338573    51.338573    49.153671    129551.83    -4122.609    449.50915   -3673.0998   -3677.7676 
 2300000    385.81247    51.376944    51.376944    49.190409    129842.53    -4127.031    448.78171   -3678.2493   -3708.5543 
 2305000    386.50147    51.301011    51.301011    49.117707    129267.67   -4123.6232    449.58316     -3674.04   -3725.5726 
 2310000    389.72542    51.245233    51.245233    49.064303    128846.49   -4129.0495    453.33331   -3675.7162   -3615.4538 
 2315000    392.86587     51.29338     51.29338    49.110402       129210   -4127.4077    456.98632   -3670.4214   -3641.1971 
 2320000    391.23595    51.298659    51.298659    49.115455    129249.89   -4120.2069    455.09036   -3665.1165      -3728.6 
 2325000    389.56755    51.334868    51.334868    49.150123    129523.78   -4124.2663    453.14966   -3671.1166   -3682.2093 
 2330000    385.58975    51.246127    51.246127    49.065159    128853.23   -4121.2825    448.52265   -3672.7598   -3713.5214 
 2335000    395.09179    51.276165    51.276165    49.093919    129079.95   -4119.0069    459.57552   -3659.4314   -3710.4131 
 2340000    394.01045    51.223624    51.223624    49.043614    128683.56   -4114.1272     458.3177   -3655.8095   -3606.7056 
 2345000    394.31651    51.307597    51.307597    49.124013    129317.47    -4119.595    458.67371   -3660.9213   -3615.7301 
 2350000    382.80124    51.165616    51.165616    48.988074    128246.87   -4124.3717    445.27901   -3679.0927   -3663.8715 
 2355000    385.34681    51.143191    51.143191    48.966604    128078.32   -4120.4073    448.24005   -3672.1673   -3653.6946 
 2360000    393.04272    51.191795    51.191795     49.01314    128443.83   -4105.6292    457.19203   -3648.4371   -3709.7991 
 2365000    391.20308     51.08052     51.08052      48.9066    127608.06   -4120.7031    455.05213    -3665.651    -3616.921 
 2370000    393.96865    51.222404    51.222404    49.042446    128674.37   -4115.9735    458.26908   -3657.7044   -3628.3551 
 2375000    392.92987    51.176607    51.176607    48.998598    128329.54   -4117.3857    457.06075   -3660.3249    -3659.269 
 2380000    392.25345    51.183022    51.183022     49.00474     128377.8   -4120.9057    456.27394   -3664.6317    -3616.925 
 2385000    395.12703    51.065526    51.065526    48.892245    127495.72   -4117.1544    459.61652   -3657.5379   -3654.8935 
 2390000    392.01825    51.129439    51.129439    48.953437    127975.03   -4116.4285    456.00035   -3660.4281   -3690.7957 
 2395000    390.58768    51.082067    51.082067    48.908081    127619.65   -4116.6861    454.33629   -3662.3498   -3656.4035 
 2400000    393.42788    51.105619    51.105619    48.930632    127796.26   -4110.0639    457.64005   -3652.4238   -3612.2267 
 2405000    394.31328    51.220753    51.220753    49.040865    128661.93   -4118.3807    458.66996   -3659.7108   -3716.1123 
 2410000    392.57305    51.230196    51.230196    49.049906    128733.09   -4114.7069     456.6457   -3658.0612   -3721.0122 
 2415000    390.99265    51.232491    51.232491    49.052103     128750.4   -4122.2185    454.80736   -3667.4112   -3663.4829 
 2420000    391.97221    51.216876    51.216876    49.037153    128632.71   -4113.8234    455.94679   -3657.8766   -3705.8437 
 2425000    391.53881     51.18697     51.18697     49.00852    128407.51   -4113.9738    455.44265   -3658.5312    -3646.118 
 2430000    393.54811    51.109556    51.109556      48.9344    127825.79   -4113.0568     457.7799   -3655.2769   -3573.2887 
 2435000    402.31863    51.120312    51.120312    48.944698    127906.51   -4121.8924    467.98188   -3653.9105   -3635.4239 
 2440000    391.16176    51.166345    51.166345    48.988773    128252.36   -4114.7475    455.00407   -3659.7434   -3631.0981 
 2445000    397.21417    51.112626    51.112626    48.937339    127848.82   -4107.1937     462.0443   -3645.1494   -3666.0584 
 2450000    393.42551    51.063314    51.063314    48.890127    127479.15    -4118.773     457.6373   -3661.1357   -3637.6823 
 2455000    401.00607    51.041921    51.041921    48.869644       127319   -4112.6992    466.45509   -3646.2441   -3679.6534 
 2460000    397.16306    51.090115    51.090115    48.915787    127679.98   -4114.4516    461.98485   -3652.4668   -3674.2138 
 2465000      397.159    50.986312    50.986312    48.816401    126903.31   -4112.6006    461.98013   -3650.6205   -3649.6598 
 2470000    398.74741    51.105114    51.105114    48.930147    127792.46   -4111.2396    463.82779   -3647.4118   -3667.9529 
 2475000    396.46894    51.114806    51.114806    48.939427    127865.19   -4106.8697    461.17744   -3645.6923    -3671.604 
 2480000    398.41166     51.06548     51.06548      48.8922    127495.37   -4114.5501    463.43724   -3651.1129   -3592.5089 
 2485000    397.16371    51.066015    51.066015    48.892712    127499.38   -4105.6157    461.98562   -3643.6301   -3646.2273 
 2490000    396.90559    51.152356    51.152356    48.975379    128147.19   -4120.0325    461.68536   -3658.3471   -3595.1372 
 2495000    397.07764    51.113156    51.113156    48.937847     127852.8   -4104.4195    461.88549    -3642.534   -3664.8756 
 2500000    398.70295    51.080796    51.080796    48.906865    127610.12   -4102.8144    463.77607   -3639.0383   -3571.4718 
 2505000    398.49952    51.067584    51.067584    48.894215    127511.13   -4107.8222    463.53944   -3644.2827   -3598.2882 
 2510000    392.06444    51.036539    51.036539    48.864491    127278.73   -4109.4807    456.05408   -3653.4266   -3694.8184 
 2515000    402.92084     51.02704     51.02704    48.855396    127207.67   -4109.2193    468.68237   -3640.5369   -3618.8982 
 2520000    398.95879    51.180598    51.180598    49.002419    128359.57   -4103.2296    464.07367   -3639.1559    -3704.369 
 2525000    399.29488    50.947082    50.947082    48.778841    126610.61   -4107.1391    464.46462   -3642.6745   -3551.4127 
 2530000    399.91756    50.925559    50.925559    48.758235    126450.22   -4097.3411    465.18892   -3632.1522   -3602.0591 
 2535000    405.09776    50.937603    50.937603    48.769765    126539.95   -4106.1125    471.21459   -3634.8979    -3599.641 
 2540000    398.21136    50.972028    50.972028    48.802726    126796.69   -4091.7736    463.20426   -3628.5693   -3671.4517 
 2545000    401.32058    50.984375    50.984375    48.814547    126888.85   -4097.8706    466.82093   -3631.0497   -3684.7654 
 2550000     400.3854    50.886176    50.886176    48.720527    126157.07   -4089.2899    465.73312   -3623.5568   -3610.6218 
 2555000    397.07678    50.929671    50.929671    48.762172    126480.85   -4097.8178     461.8845   -3635.9333   -3682.6879 
 2560000    397.66074    50.959916    50.959916    48.791129    126706.32    -4102.935    462.56376   -3640.3712   -3667.7758 
 2565000    401.54192    50.977201    50.977201    48.807678    126835.29   -4102.7075    467.07839   -3635.6291   -3650.0707 
 2570000    399.95285    50.851246    50.851246    48.687084    125897.46    -4111.182    465.22997   -3645.9521   -3645.1931 
 2575000    398.75125    51.015384    51.015384    48.844237    127120.52   -4098.0432    463.83226    -3634.211   -3618.4967 
 2580000    397.71858    50.887129    50.887129     48.72144    126164.16    -4102.653    462.63104   -3640.0219   -3602.2315 
 2585000    407.52573    50.841315    50.841315    48.677575    125823.71   -4101.3155    474.03884   -3627.2767   -3655.6311 
 2590000    405.71192    50.862121    50.862121    48.697496    125978.25   -4097.7126    471.92899   -3625.7836    -3751.836 
 2595000    407.07449    50.879898    50.879898    48.714517    126110.39   -4092.3573    473.51395   -3618.8434   -3582.8103 
 2600000    401.70158    50.784792    50.784792    48.623458    125404.53   -4092.6051    467.26411    -3625.341   -3600.2377 
 2605000    408.97597    50.782925    50.782925     48.62167    125390.69   -4099.2122    475.72577   -3623.4864   -3684.5183 
 2610000    405.87923    50.820479    50.820479    48.657626    125669.07   -4090.0033    472.12361   -3617.8797   -3584.7314 
 2615000     401.6394    50.826125    50.826125    48.663032    125710.97   -4091.1444    467.19178   -3623.9526   -3493.0288 
 2620000    406.80505    50.786634    50.786634    48.625221    125418.17   -4105.2454    473.20054   -3632.0448   -3680.2999 
 2625000    407.14934    50.781953    50.781953     48.62074    125383.49   -4091.5984    473.60102   -3617.9974   -3679.1586 
 2630000    401.75363    50.798376    50.798376    48.636464    125505.18   -4093.7667    467.32466    -3626.442   -3656.6572 
 2635000    410.95962    50.888544    50.888544    48.722795    126174.69    -4092.272    478.03318   -3614.2389   -3627.0218 
 2640000    407.46702    50.778742    50.778742    48.617665    125359.71   -4093.6111    473.97054   -3619.6406   -3611.5529 
 2645000    409.15955    50.832032    50.832032    48.668688    125754.81   -4098.0304    475.93932   -3622.0911    -3614.839 
 2650000    406.53144    50.822343    50.822343    48.659411    125682.91   -4093.3285    472.88227   -3620.4462   -3715.4643 
 2655000    402.87293    50.752804    50.752804    48.592832    125167.71   -4091.3558    468.62665   -3622.7291   -3600.5988 
 2660000    402.64948    50.817818    50.817818    48.655079    125649.34   -4089.4815    468.36673   -3621.1148   -3647.4096 
 2665000    409.17096    50.907597    50.907597    48.741036    126316.46   -4083.8456    475.95258   -3607.8931   -3588.4441 
 2670000    405.32977    50.728069    50.728069    48.569149    124984.79   -4087.4371    471.48447   -3615.9526   -3535.7929 
 2675000    401.23894    50.740056    50.740056    48.580626    125073.41   -4083.5278    466.72597   -3616.8018   -3627.1735 
 2680000      415.834     50.70511     50.70511    48.547167    124815.16   -4089.4756    483.70312   -3605.7725   -3569.9425 
 2685000    401.11895    50.772886    50.772886    48.612058    125316.34   -4087.9351    466.58639   -3621.3487   -3661.2063 
 2690000    409.52751    50.714338    50.714338    48.556003    124883.32   -4094.5518    476.36733   -3618.1844   -3532.3774 
 2695000    410.37698    50.747271    50.747271    48.587534    125126.77   -4081.3125    477.35544    -3603.957   -3551.5818 
 2700000    403.59127    50.762704    50.762704     48.60231    125240.96   -4089.9426    469.46222   -3620.4804   -3579.8506 
 2705000     408.9511    50.703208    50.703208    48.545347    124801.12   -4086.5939    475.69684   -3610.8971   -3584.8654 
 2710000    404.14215    50.751783    50.751783    48.591854    125160.15   -4091.0918    470.10302   -3620.9888   -3535.9468 
 2715000    409.48416    50.789476    50.789476    48.627942    125439.22   -4086.8221    476.31691   -3610.5051   -3704.0567 
 2720000    413.27733    50.678849    50.678849    48.522024    124621.33   -4085.6341    480.72916   -3604.9049   -3557.0537 
 2725000    409.96027    50.627818    50.627818    48.473164    124245.25   -4073.1806    476.87072   -3596.3098     -3599.43 
 2730000    408.07851    50.601793    50.601793    48.448247    124053.74   -4085.0308    474.68184   -3610.3489   -3593.0261 
 2735000    409.84324    50.629414    50.629414    48.474693       124257   -4092.3316    476.73459    -3615.597    -3634.952 
 2740000    410.46337    50.576846    50.576846    48.424362    123870.36   -4080.2339    477.45593   -3602.7779   -3609.1597 
 2745000    413.58984    50.657171    50.657171    48.501269    124461.48   -4084.0939    481.09268   -3603.0013   -3651.3871 
 2750000    412.03274    50.535058    50.535058    48.384352    123563.57   -4079.0278    479.28145   -3599.7464   -3571.8992 
 2755000    408.60362    50.593295    50.593295    48.440111    123991.26   -4079.0992    475.29266   -3603.8065   -3615.7434 
 2760000    412.08375    50.456226    50.456226    48.308875    122986.22   -4083.0193    479.34078   -3603.6785   -3628.6892 
 2765000    412.13429    50.502275    50.502275    48.352965    123323.26   -4075.6826    479.39957   -3596.2831   -3581.3153 
 2770000    414.85409    50.466979    50.466979    48.319171    123064.87   -4085.3384    482.56327   -3602.7752   -3625.4293 
 2775000    408.49369    50.443394    50.443394     48.29659    122892.41   -4092.6446    475.16478   -3617.4798   -3685.5652 
 2780000    412.42644    50.467684    50.467684    48.319846    123070.03   -4077.4688     479.7394   -3597.7294   -3566.7918 
 2785000    420.97793    50.330987    50.330987    48.188967    122072.69   -4077.1701     489.6866   -3587.4835   -3537.9221 
 2790000    412.88099    50.348509    50.348509    48.205742    122200.22   -4075.6997    480.26814   -3595.4316   -3613.8496 
 2795000    413.11151    50.260188    50.260188     48.12118    121558.26   -4079.2161    480.53629   -3598.6798   -3614.7414 
 2800000    417.01731    50.266456    50.266456    48.127182    121603.75   -4079.3729    485.07956   -3594.2933   -3616.7572 
 2805000    416.82989    50.238332    50.238332    48.100254    121399.75   -4084.8573    484.86154   -3599.9958   -3571.7586 
 2810000    419.67037    50.174879    50.174879    48.039502    120940.34   -4078.8656    488.16563      -3590.7   -3591.7565 
 2815000      412.537    50.244899    50.244899    48.106542    121447.36   -4074.6304    479.86801   -3594.7624   -3540.2516 
 2820000    423.47628    50.023525    50.023525     47.89459    119849.17   -4077.4764    492.59271   -3584.8836   -3456.7268 
 2825000    407.82012    50.029478    50.029478    47.900289    119891.97   -4077.4442    474.38128   -3603.0629   -3642.3119 
 2830000    411.05143    49.953691    49.953691    47.827728    119347.94    -4080.014    478.13997    -3601.874   -3553.4794 
 2835000    416.89982    49.974322    49.974322    47.847481    119495.87   -4077.2217    484.94289   -3592.2788   -3569.8846 
 2840000    409.17651    49.972375    49.972375    47.845617    119481.91   -4072.8856    475.95905   -3596.9266   -3671.0432 
 2845000    417.30531    50.025477    50.025477    47.896459    119863.21   -4079.0022    485.41456   -3593.5876   -3618.1029 
 2850000    418.88166    49.952877    49.952877    47.826948     119342.1   -4069.8628    487.24819   -3582.6146   -3558.9675 
 2855000    415.16908    49.915089    49.915089    47.790768    119071.47     -4080.71    482.92968   -3597.7804   -3615.7601 
 2860000    419.65978    49.885931    49.885931    47.762851    118862.92   -4074.5212    488.15332   -3586.3679   -3531.1879 
 2865000    412.19387    49.914078    49.914078      47.7898    119064.23    -4074.689    479.46888   -3595.2201   -3517.8779 
 2870000    406.02409    49.803599    49.803599    47.684024    118275.38   -4076.9165    472.29211   -3604.6244   -3568.9672 
 2875000    414.76956     49.64133     49.64133     47.52866    117123.05   -4087.3222    482.46495   -3604.8573   -3582.3277 
 2880000    415.62724    49.717193    49.717193    47.601295    117660.85   -4079.9489    483.46261   -3596.4863   -3624.9578 
 2885000    416.04944    49.678416    49.678416    47.564168    117385.75   -4079.4411    483.95372   -3595.4874   -3562.5625 
 2890000    421.67479    49.727799    49.727799    47.611449    117736.16   -4071.2347     490.4972   -3580.7375   -3622.7756 
 2895000    412.63122     49.61572     49.61572     47.50414    116941.87   -4084.0566    479.97761   -3604.0789   -3565.3921 
 2900000    417.92606    49.672435    49.672435    47.558441    117343.36   -4079.4833    486.13662   -3593.3467   -3552.5618 
 2905000    418.72015    49.751305    49.751305    47.633955     117903.2   -4072.0145    487.06032   -3584.9542      -3563.1 
 2910000    414.85062    49.790048    49.790048    47.671049    118178.86   -4070.9282    482.55923    -3588.369   -3582.3846 
 2915000    410.71425    49.752901    49.752901    47.635483    117914.55     -4076.01    477.74776   -3598.2623   -3556.7463 
 2920000    415.38839    49.686176    49.686176    47.571598    117440.77   -4077.1562    483.18478   -3593.9714   -3554.6498 
 2925000    417.66438    49.661638    49.661638    47.548104    117266.86   -4073.4919    485.83224   -3587.6597   -3558.5341 
 2930000     419.9706     49.62766     49.62766    47.515572    117026.32   -4077.4257    488.51486   -3588.9109   -3516.2825 
 2935000    413.89244    49.677216    49.677216     47.56302    117377.25   -4072.7097    481.44467    -3591.265   -3554.2935 
 2940000    417.00321    49.642939    49.642939    47.530201    117134.45   -4078.2988    485.06316   -3593.2356   -3624.0756 
 2945000    420.82429    49.708083    49.708083    47.592573    117596.18   -4062.3664    489.50788   -3572.8585   -3505.2116 
 2950000    418.04287    49.623002    49.623002    47.511113    116993.38   -4071.5709     486.2725   -3585.2984   -3600.6687 
 2955000    425.96664    49.574352    49.574352    47.464532    116649.61    -4069.683    495.48953   -3574.1934   -3577.7185 
 2960000    421.94096    49.453082    49.453082    47.348424    115795.65   -4078.4775    490.80681   -3587.6707   -3603.5859 
 2965000    419.56914     49.49536     49.49536    47.388903    116092.89   -4070.4177    488.04788   -3582.3698   -3599.0455 
 2970000    426.22017    49.442494    49.442494    47.338287    115721.29   -4063.9818    495.78443   -3568.1973   -3517.6035 
 2975000     417.9049    49.394524    49.394524    47.292358     115384.8   -4073.6076    486.11201   -3587.4956   -3628.0039 
 2980000    420.38676    49.485773    49.485773    47.379723    116025.44   -4060.3432    488.99894   -3571.3442   -3613.5802 
 2985000    424.91004    49.502859    49.502859    47.396083    116145.67    -4073.878    494.26048   -3579.6175   -3644.3433 
 2990000    418.03332    49.290845    49.290845    47.193091    114659.74   -4074.8952    486.26139   -3588.6338   -3554.5368 
 2995000    429.75352    49.340289    49.340289    47.240431    115005.13   -4069.8184    499.89447   -3569.9239   -3576.4201 
 3000000    424.21798    49.213013    49.213013    47.118572    114117.45   -4064.3388    493.45546   -3570.8833   -3640.4965 
 3005000     418.2624    49.260135    49.260135    47.163689    114445.56   -4073.3377    486.52786   -3586.8098   -3663.5304 
 3010000    420.52462    49.164552    49.164552    47.072173    113780.65   -4058.9647     489.1593   -3569.8054   -3526.2226 
 3015000     425.9537     49.21628     49.21628      47.1217    114140.17   -4075.5778    495.47447   -3580.1034   -3555.6745 
 3020000    421.07136    49.228437    49.228437     47.13334    114224.77   -4069.9285    489.79528   -3580.1333   -3647.7799 
 3025000    427.24208    49.163157    49.163157    47.070838    113770.97   -4072.3246    496.97313   -3575.3515   -3522.0645 
 3030000    422.33888    49.273798    49.273798     47.17677    114540.82   -4058.8716    491.26967   -3567.6019   -3608.3744 
 3035000    421.85379    49.223985    49.223985    47.129077    114193.79   -4069.5866    490.70541   -3578.8812   -3620.9938 
 3040000    427.31469    49.208721    49.208721    47.114463    114087.59   -4066.6406    497.05759    -3569.583   -3526.9516 
 3045000    424.12928    49.134366    49.134366    47.043272    113571.21   -4069.0482    493.35228   -3575.6959   -3507.3431 
 3050000    425.94585    49.250417    49.250417    47.154384    114377.84   -4067.2319    495.46534   -3571.7666   -3639.7103 
 3055000    428.63631    49.242308    49.242308     47.14662    114321.35    -4071.915    498.59492   -3573.3201   -3558.2731 
 3060000     419.2757    49.119985    49.119985    47.029503    113471.51   -4060.2049    487.70654   -3572.4984   -3561.6875 
 3065000    424.11439    49.094812    49.094812    47.005402    113297.15   -4061.6995    493.33497   -3568.3645   -3623.1142 
 3070000    428.63181    49.047731    49.047731    46.960324    112971.51   -4063.0897    498.58968      -3564.5   -3555.7055 
 3075000    426.28784    49.006857    49.006857     46.92119    112689.31   -4064.7133    495.86315   -3568.8502    -3567.686 
 3080000    423.24058    49.042014    49.042014    46.954851    112932.01   -4060.7289    492.31854   -3568.4103   -3570.2094 
 3085000    422.45249    48.986883    48.986883    46.902066    112551.58     -4060.04    491.40183   -3568.6381   -3573.2357 
 3090000    431.94207    48.887154    48.887154    46.806581    111865.57   -4063.5651    502.44021   -3561.1249   -3533.8806 
 3095000    420.85213    48.984606    48.984606    46.899885    112535.88   -4044.2651    489.54027   -3554.7248   -3661.0685 
 3100000    422.37413    48.931425    48.931425    46.848968    112169.75   -4051.8073    491.31068   -3560.4966   -3591.4077 
 3105000    424.03102    48.847227    48.847227    46.768353     111591.7   -4059.5686    493.23799   -3566.3306    -3603.717 
 3110000    429.69335    48.747958    48.747958    46.673309    110912.74   -4064.9638    499.82448   -3565.1393   -3568.2988 
 3115000    426.86461    48.794506    48.794506    46.717876    111230.77   -4047.4951    496.53406   -3550.9611   -3573.3032 
 3120000     430.5294    48.831784    48.831784    46.753568     111485.9   -4055.0532    500.79698   -3554.2562   -3548.7151 
 3125000    427.16837    48.726429    48.726429    46.652696    110765.86     -4050.85    496.88739   -3553.9626   -3601.2728 
 3130000    426.39922     48.76623     48.76623    46.690803    111037.51   -4055.6673     495.9927   -3559.6746   -3510.9861 
 3135000    435.09824    48.657528    48.657528    46.586727    110296.64   -4046.5688    506.11151   -3540.4573   -3515.7984 
 3140000    432.12717    48.639983    48.639983     46.56993    110177.37   -4051.4055    502.65553   -3548.7499   -3582.8914 
 3145000    432.07044    48.606039    48.606039     46.53743    109946.87   -4043.3381    502.58954   -3540.7486   -3520.0486 
 3150000     438.3912    48.661332    48.661332     46.59037    110322.51    -4046.888    509.94192   -3536.9461   -3474.0841 
 3155000    440.98515    48.587796    48.587796    46.519964    109823.12   -4042.7947    512.95924   -3529.8354   -3524.5136 
 3160000    436.10178    48.535588    48.535588    46.469977    109469.48    -4056.287    507.27884   -3549.0081   -3504.2639 
 3165000    432.24535    48.478822    48.478822    46.415627    109085.83   -4056.3788      502.793   -3553.5858   -3591.8734 
 3170000    433.34882    48.411313    48.411313    46.350991    108630.74   -4044.2438    504.07656   -3540.1673   -3476.8324 
 3175000     434.6231    48.482985    48.482985    46.419613    109113.93   -4051.0943    505.55882   -3545.5355   -3592.2898 
 3180000    431.14061     48.31473     48.31473    46.258519    107981.87   -4064.6845    501.50795   -3563.1766   -3557.7274 
 3185000    429.00224    48.356622    48.356622    46.298628    108262.99   -4056.9663    499.02057   -3557.9457   -3513.4525 
 3190000       434.44    48.325507    48.325507    46.268837    108054.14    -4061.943    505.34584   -3556.5972   -3522.4232 
 3195000    433.27119     48.39632     48.39632    46.336637    108529.85   -4056.4606    503.98627   -3552.4743   -3464.5546 
 3200000    432.71792    48.359261    48.359261    46.301154    108280.72   -4055.9829     503.3427   -3552.6402    -3511.607 
 3205000    431.75763    48.334565    48.334565     46.27751    108114.92   -4054.2318    502.22567   -3552.0061   -3501.2693 
 3210000    430.13433    48.372099    48.372099    46.313446    108366.98   -4056.4908    500.33743   -3556.1534   -3621.8874 
 3215000    434.20049    48.357998    48.357998    46.299945    108272.24   -4047.2031    505.06724   -3542.1359   -3538.5384 
 3220000    438.43706    48.303083    48.303083    46.247368     107903.8   -4055.0333    509.99527   -3545.0381   -3522.9027 
 3225000    439.43382    48.346626    48.346626    46.289057    108195.87   -4058.7081    511.15471   -3547.5534   -3599.3509 
 3230000    428.13063    48.359339    48.359339     46.30123    108281.25   -4046.3514    498.00671   -3548.3447   -3565.9173 
 3235000    437.32275    48.312867    48.312867    46.256735    107969.37   -4049.7648    508.69909   -3541.0657   -3584.0811 
 3240000    435.96769    48.250024    48.250024    46.196567     107548.6   -4052.3835    507.12287   -3545.2606   -3548.5684 
 3245000    437.58217    48.201729    48.201729    46.150327    107225.98   -4044.0892    509.00085   -3535.0884   -3472.6518 
 3250000    435.28173    48.121909    48.121909    46.073904    106694.17   -4050.5154    506.32495   -3544.1904   -3506.7191 
 3255000    432.39265    48.067628    48.067628    46.021933    106333.53   -4048.9864    502.96434   -3546.0221   -3544.5478 
 3260000    434.44972     48.05734     48.05734    46.012083    106265.27   -4050.2518    505.35715   -3544.8947   -3521.4824 
 3265000      437.969     47.94068     47.94068    45.900388    105493.27   -4055.5411    509.45081   -3546.0903   -3529.1613 
 3270000     434.2499     47.92511     47.92511     45.88548    105390.51   -4055.1448    505.12471   -3550.0201   -3576.0342 
 3275000    440.93416    47.976341    47.976341    45.934531    105728.86   -4056.2815    512.89993   -3543.3816   -3517.4175 
 3280000    437.25473    47.963317    47.963317    45.922061    105642.77    -4054.359    508.61997    -3545.739   -3507.0047 
 3285000    436.88236    48.052922    48.052922    46.007853    106235.97   -4051.1744    508.18683   -3542.9876   -3571.8739 
 3290000    436.47926    48.037618    48.037618      45.9932    106134.49   -4050.1904    507.71793   -3542.4725   -3571.5339 
 3295000    436.17224    47.972911    47.972911    45.931247    105706.18   -4052.4566     507.3608   -3545.0958   -3648.9644 
 3300000    440.29227    47.899709    47.899709     45.86116    105223.02   -4046.1127    512.15328   -3533.9594   -3480.0095 
 3305000     438.9908    47.868359    47.868359    45.831145    105016.56   -4053.5912    510.63939   -3542.9518   -3586.7966 
 3310000    436.81209    47.854857    47.854857    45.818218    104927.72   -4039.6744    508.10509   -3531.5694   -3503.6702 
 3315000    437.16693    47.873896    47.873896    45.836446       105053   -4046.5311    508.51783   -3538.0133   -3549.4118 
 3320000     437.2881    47.918986    47.918986    45.879617    105350.12   -4044.3202    508.65879   -3535.6614   -3559.8521 
 3325000    435.64629    47.849866    47.849866    45.813438    104894.89   -4040.0479    506.74901   -3533.2989   -3496.7072 
 3330000    444.84618    47.831667    47.831667    45.796014    104775.25   -4038.8238    517.45043   -3521.3734   -3514.4073 
 3335000    439.06616    47.807112    47.807112    45.772504    104613.97   -4046.3403    510.72704   -3535.6132   -3566.4422 
 3340000    438.82604    47.752127    47.752127    45.719859    104253.42   -4045.3673    510.44774   -3534.9195   -3563.1341 
 3345000    445.43976    47.744512    47.744512    45.712568    104203.55   -4047.9325    518.14089   -3529.7917   -3576.9484 
 3350000    441.09552    47.591153    47.591153    45.565737    103202.65   -4045.7024    513.08762   -3532.6148   -3550.6599 
 3355000    436.77227    47.601217    47.601217    45.575371    103268.13   -4046.4539    508.05876   -3538.3952   -3456.8408 
 3360000    442.00625    47.514467    47.514467    45.492314    102704.57   -4050.7962    514.14699   -3536.6492   -3530.9064 
 3365000    452.33434    47.558986    47.558986    45.534939    102993.53   -4046.1411    526.16076   -3519.9803   -3510.6952 
 3370000    443.17713    47.674136    47.674136    45.645188    103743.45   -4049.3265    515.50897   -3533.8175   -3501.1985 
 3375000    437.00698    47.549907    47.549907    45.526245    102934.55   -4038.2106    508.33179   -3529.8789   -3595.9894 
 3380000    440.61322     47.47613     47.47613    45.455608    102456.16   -4050.5226    512.52661    -3537.996   -3528.3933 
 3385000    443.10122    47.479283    47.479283    45.458628    102476.58   -4039.2907    515.42067     -3523.87   -3410.7085 
 3390000    441.52012    47.396487    47.396487    45.379355    101941.41   -4056.6455    513.58152    -3543.064   -3514.3234 
 3395000    443.81341    47.323277    47.323277    45.309261    101469.75   -4053.8157     516.2491   -3537.5666   -3567.7639 
 3400000    447.06203    47.324191    47.324191    45.310136    101475.63   -4051.1144    520.02794   -3531.0865   -3598.2634 
 3405000    446.22618    47.239131    47.239131    45.228696    100929.44   -4040.5574    519.05566   -3521.5017   -3424.4686 
 3410000    445.36608    47.322467    47.322467    45.308485    101464.54   -4046.4339    518.05519   -3528.3787   -3556.9423 
 3415000    447.48061     47.19492     47.19492    45.186367    100646.33   -4049.8183    520.51484   -3529.3035   -3546.0856 
 3420000    437.76992    47.221717    47.221717    45.212023    100817.86   -4047.4966    509.21925   -3538.2773    -3509.887 
 3425000    445.62841    47.208244    47.208244    45.199124     100731.6    -4051.572    518.36034   -3533.2117   -3542.0393 
 3430000    445.06598    47.271383    47.271383    45.259575    101136.31    -4037.822    517.70611   -3520.1159   -3517.0671 
 3435000    443.75303    47.230144    47.230144    45.220091    100871.85   -4049.0528    516.17886    -3532.874   -3504.8246 
 3440000    451.84273    47.097311    47.097311    45.092912    100023.14   -4057.0047    525.58891   -3531.4158    -3549.501 
 3445000    447.05049    47.119023    47.119023      45.1137    100161.54    -4042.401    520.01451   -3522.3865   -3496.6396 
 3450000    442.70864    47.124806    47.124806    45.119236    100198.42   -4045.4406    514.96402   -3530.4766   -3541.4216 
 3455000    446.64931    47.059155    47.059155    45.056379    99780.237   -4038.9961    519.54786   -3519.4483   -3531.9762 
 3460000    442.27647    47.037928    47.037928    45.036056    99645.275   -4045.5244    514.46132   -3531.0631   -3547.6343 
 3465000    443.34482    47.031472    47.031472    45.029875    99604.255   -4046.6032    515.70403   -3530.8992   -3477.9702 
 3470000     448.0294    46.997658    46.997658    44.997499    99389.569   -4041.3635     521.1532   -3520.2103   -3508.1173 
 3475000    448.18734    47.005431    47.005431    45.004942    99438.894   -4039.1496    521.33691   -3517.8127   -3500.7244 
 3480000     449.1605    47.042403    47.042403    45.040341     99673.72   -4041.6727    522.46891   -3519.2038     -3519.86 
 3485000    455.36065     47.03382     47.03382    45.032123    99619.173   -4036.9656      529.681   -3507.2846   -3543.6665 
 3490000    444.89281    46.973405    46.973405    44.974279     99235.78   -4042.5394    517.50468   -3525.0348   -3483.5709 
 3495000    443.26583    47.024769    47.024769    45.023457    99561.671   -4046.7499    515.61215   -3531.1377   -3545.1854 
 3500000    446.89378    46.953539    46.953539    44.955258    99109.929   -4045.4643    519.83223   -3525.6321   -3516.2261 
 3505000    447.65507    47.034104    47.034104    45.032395    99620.977   -4049.5397    520.71778   -3528.8219   -3559.9874 
 3510000    449.28564    46.885434    46.885434    44.890052    98679.285    -4036.359    522.61447   -3513.7446   -3451.0957 
 3515000    449.73849    46.805185    46.805185    44.813218    98173.451   -4035.4907    523.14122   -3512.3495   -3465.8689 
 3520000    449.09074    46.930416    46.930416    44.933119    98963.576   -4030.8217    522.38776   -3508.4339   -3536.4368 
 3525000    449.92987    46.808677    46.808677    44.816561    98195.426   -4027.7303    523.36384   -3504.3665   -3489.0338 
 3530000    456.71914    46.821436    46.821436    44.828778     98275.75    -4035.796    531.26121   -3504.5348   -3460.1572 
 3535000    447.69421    46.729892    46.729892    44.741129    97700.434   -4033.1445     520.7633   -3512.3812   -3500.5123 
 3540000    445.92679    46.669123    46.669123    44.682946     97319.77    -4041.417    518.70742   -3522.7096    -3526.743 
 3545000    452.70564    46.591952    46.591952     44.60906    96837.793   -4038.3924    526.59265   -3511.7997    -3472.974 
 3550000     450.4799    46.569543    46.569543    44.587604    96698.132   -4040.9567    524.00364   -3516.9531   -3383.9759 
 3555000     450.6009    46.643265    46.643265    44.658189    97158.099   -4039.1648     524.1444   -3515.0204   -3548.2792 
 3560000    455.89407    46.609488    46.609488    44.625849    96947.174   -4033.9383    530.30147   -3503.6368    -3548.815 
 3565000    445.86036    46.570126    46.570126    44.588163    96701.767   -4038.8976    518.63015   -3520.2674   -3578.3322 
 3570000    451.97168    46.542244    46.542244    44.561467    96528.179   -4024.3727    525.73891   -3498.6338   -3518.2152 
 3575000    453.91834    46.497419    46.497419     44.51855    96249.548   -4032.7021    528.00328   -3504.6988   -3500.8057 
 3580000    457.36396    46.438432    46.438432    44.462073    95883.702   -4035.3063    532.01127   -3503.2951   -3468.6673 
 3585000    451.92538    46.338179    46.338179    44.366088    95264.056   -4035.3962    525.68504   -3509.7112   -3519.4011 
 3590000    450.27727    46.386972    46.386972    44.412804    95565.303   -4040.8229    523.76795   -3517.0549   -3538.5034 
 3595000     460.2488    46.411876    46.411876    44.436647    95719.302   -4030.9503    535.36695   -3495.5834   -3555.6935 
 3600000    451.33565    46.321484    46.321484    44.350103    95161.124   -4038.0386    524.99907   -3513.0395    -3474.503 
 3605000     448.3099    46.398372    46.398372    44.423719     95635.78    -4030.628    521.47947   -3509.1485   -3500.7647 
 3610000    454.27936     46.32597     46.32597    44.354397    95188.771   -4028.5619    528.42322   -3500.1387   -3456.9416 
 3615000    456.89415    46.360611    46.360611    44.387565    95402.472   -4035.5742    531.46477   -3504.1094   -3507.8972 
 3620000    455.35224    46.331749    46.331749    44.359931    95224.404   -4040.0079    529.67121   -3510.3367   -3444.8591 
 3625000    455.81736    46.337443    46.337443    44.365383    95259.515   -4027.6726    530.21224   -3497.4603   -3478.4286 
 3630000    454.41757    46.189245    46.189245    44.223492    94348.447   -4032.3223    528.58399   -3503.7383   -3453.0608 
 3635000    451.85633    46.320067    46.320067    44.348745    95152.387   -4027.2067    525.60473    -3501.602   -3502.9061 
 3640000     458.3521    46.325056    46.325056    44.353522    95183.136   -4023.1308    533.16069   -3489.9701   -3487.8188 
 3645000    455.84982    46.349045    46.349045     44.37649    95331.082   -4026.9477       530.25   -3496.6977   -3477.4093 
 3650000    460.65789    46.291829    46.291829     44.32171    94978.473   -4033.4885    535.84281   -3497.6457   -3476.3776 
 3655000    456.38243    46.299362    46.299362    44.328922    95024.848   -4025.7364    530.86954   -3494.8669    -3499.825 
 3660000    460.76304    46.284705    46.284705    44.314889    94934.633   -4044.0823    535.96512   -3508.1172   -3467.6515 
 3665000    456.36989    46.300439    46.300439    44.329954    95031.482   -4035.5328    530.85496   -3504.6778   -3466.2035 
 3670000    450.83168    46.299955    46.299955     44.32949    95028.502    -4040.203    524.41284   -3515.7901   -3468.5173 
 3675000    457.55335    46.258854    46.258854    44.290138    94775.649   -4032.9121    532.23157   -3500.6805   -3457.0395 
 3680000    456.30019    46.307386    46.307386    44.336605    95074.264   -4034.7018    530.77387   -3503.9279   -3490.5284 
 3685000    461.06771    46.258736    46.258736    44.290025    94774.924   -4030.5893    536.31951   -3494.2698   -3437.2817 
 3690000    465.59126    46.189859    46.189859    44.224079    94352.209   -4035.0973    541.58136    -3493.516   -3434.3044 
 3695000    453.77888    46.258884    46.258884    44.290167    94775.835   -4029.0575    527.84105   -3501.2164   -3459.6463 
 3700000    455.49201    46.229446    46.229446    44.261982    94595.012   -4026.5642     529.8338   -3496.7304   -3507.8113 
 3705000    464.11184    46.292281    46.292281    44.322142    94981.253    -4030.823    539.86049   -3490.9625   -3599.2766 
 3710000     461.8171    46.305793    46.305793     44.33508    95064.453   -4031.0097    537.19121   -3493.8185   -3536.5906 
 3715000    459.59213    46.238803    46.238803    44.270941    94652.463   -4025.9343     534.6031   -3491.3312   -3425.4401 
 3720000    455.30195    46.364407    46.364407    44.391199    95425.907   -4018.7801    529.61271   -3489.1674   -3525.2453 
 3725000    456.99018    46.248862    46.248862    44.280571    94714.249   -4031.0801    531.57648   -3499.5037   -3496.6694 
 3730000    461.55887    46.289623    46.289623    44.319597    94964.895   -4036.0216    536.89083   -3499.1308    -3528.789 
 3735000    461.78553    46.202858    46.202858    44.236525    94431.893   -4034.4349    537.15449   -3497.2804   -3468.2995 
 3740000    465.91551    46.339234    46.339234    44.367097    95270.559   -4020.6475    541.95853   -3478.6889   -3472.8775 
 3745000    464.41806    46.266873    46.266873    44.297816    94824.946   -4020.4318    540.21668   -3480.2151   -3410.7791 
 3750000    459.61666    46.285848    46.285848    44.315984    94941.666   -4018.7818    534.63164   -3484.1502   -3548.9281 
 3755000    465.15261    46.275091    46.275091    44.305684    94875.485   -4029.3288    541.07112   -3488.2576   -3494.4651 
 3760000    455.32255    46.339526    46.339526    44.367376    95272.358   -4021.9072    529.63668   -3492.2706   -3569.3426 
 3765000    465.74239     46.32931     46.32931    44.357596    95209.363   -4022.9385    541.75715   -3481.1813   -3490.3706 
 3770000    460.58256    46.402637    46.402637    44.427802    95662.153   -4011.7489    535.75518   -3475.9937   -3546.7727 
 3775000    460.34926     46.25738     46.25738    44.288727     94766.59   -4028.3201     535.4838   -3492.8363   -3416.5796 
 3780000    467.80649    46.234529    46.234529    44.266849    94626.219   -4032.0916    544.15815   -3487.9335   -3477.9315 
 3785000    462.98196    46.326843    46.326843    44.355234    95194.157   -4035.1002    538.54619    -3496.554   -3543.3109 
 3790000    469.45439    46.213912    46.213912    44.247108    94499.683   -4030.2356      546.075   -3484.1606   -3485.8013 
 3795000    462.33834    46.236093    46.236093    44.268345    94635.818   -4028.6221    537.79753   -3490.8246   -3516.6281 
 3800000    465.23044    46.202544    46.202544    44.236224    94429.965   -4029.3585    541.16165   -3488.1968   -3437.7742 
 3805000    464.85895     46.25897     46.25897    44.290249    94776.363   -4023.0508    540.72953   -3482.3213   -3510.9721 
 3810000    464.05937    46.291888    46.291888    44.321766    94978.837   -4022.0101    539.79945   -3482.2107   -3562.2023 
 3815000    468.07693    46.382592    46.382592     44.40861    95538.235   -4014.3069    544.47273   -3469.8342   -3543.0049 
 3820000    467.24914    46.210277    46.210277    44.243629     94477.39    -4016.472    543.50983   -3472.9622   -3484.7882 
 3825000    463.76733    46.257819    46.257819    44.289147    94769.291   -4023.3654    539.45974   -3483.9057   -3490.6968 
 3830000    459.09083    46.292942    46.292942    44.322776    94985.327   -4018.3488    534.01999   -3484.3288   -3515.6034 
 3835000    458.58184     46.24638     46.24638    44.278195    94699.003   -4029.6648    533.42792   -3496.2368   -3515.7849 
 3840000    458.85311    46.290896    46.290896    44.320817    94972.734   -4018.1384    533.74347   -3484.3949    -3488.277 
 3845000    466.41565    46.307027    46.307027    44.336261    95072.049   -4012.9409    542.54031   -3470.4006   -3484.8308 
 3850000    460.34482    46.367815    46.367815    44.394462    95446.951   -4013.7446    535.47864   -3478.2659   -3495.1114 
 3855000    466.46248    46.406909    46.406909    44.431892    95688.573   -4012.8964    542.59477   -3470.3017   -3509.1353 
 3860000    455.64009    46.338877    46.338877    44.366755    95268.356   -4008.3783    530.00604   -3478.3723    -3581.884 
 3865000    464.81531    46.360926    46.360926    44.387866    95404.415   -4011.1347    540.67876    -3470.456   -3525.9466 
 3870000     468.2514     46.31849     46.31849    44.347236    95142.675   -4006.6203    544.67567   -3461.9447   -3472.2823 
 3875000    458.05258    46.247827    46.247827     44.27958    94707.889   -4016.1373    532.81228    -3483.325   -3470.7619 
 3880000    462.22927    46.299404    46.299404    44.328962    95025.105   -4019.4306    537.67066     -3481.76   -3460.0033 
 3885000    461.41979    46.288058    46.288058    44.318099    94955.264   -4009.7774    536.72906   -3473.0483   -3499.3492 
 3890000    470.81747    46.330743    46.330743    44.358968    95218.199   -4006.0915    547.66055    -3458.431   -3441.5661 
 3895000    466.69034    46.349736    46.349736    44.377152     95335.35   -4016.0227    542.85982   -3473.1629    -3533.636 
 3900000    468.67689    46.318627    46.318627    44.347367    95143.517   -4016.1255     545.1706   -3470.9549   -3432.6694 
 3905000    466.53558    46.278184    46.278184    44.308645    94894.508   -4011.2663     542.6798   -3468.5864    -3432.338 
 3910000    469.92465    46.305423    46.305423    44.334725     95062.17   -4009.2696    546.62201   -3462.6476   -3410.4212 
 3915000    470.83395    46.346336    46.346336    44.373897     95314.37    -4014.692    547.67972   -3467.0122   -3460.2071 
 3920000    477.34586    46.267933    46.267933    44.298831    94831.467   -4008.0973    555.25446   -3452.8429   -3428.4169 
 3925000    460.75557    46.374942    46.374942    44.401285    95490.967   -4001.2853    535.95643   -3465.3289   -3424.6638 
 3930000     465.1391    46.212853    46.212853    44.246095    94493.188   -4021.0527     541.0554   -3479.9973   -3314.0332 
 3935000    468.98454     46.31622     46.31622    44.345063    95128.685   -4005.0238    545.52847   -3459.4954    -3433.443 
 3940000    464.55032    46.331622    46.331622    44.359809    95223.619    -4014.179    540.37053   -3473.8085   -3538.9855 
 3945000    464.31205    46.325086    46.325086    44.353551    95183.325    -4013.132    540.09336   -3473.0387   -3426.1142 
 3950000    470.80307     46.33533     46.33533    44.363359    95246.482   -4013.4915     547.6438   -3465.8477   -3517.6185 
 3955000    469.08068    46.310652    46.310652    44.339732    95094.382   -4011.3594     545.6403   -3465.7191   -3537.6597 
 3960000    462.43723    46.334752    46.334752    44.362806    95242.918   -4009.4808    537.91255   -3471.5683   -3568.3665 
 3965000    478.85586    46.362754    46.362754    44.389616    95415.697   -3999.8157    557.01091   -3442.8048   -3462.6967 
 3970000     472.9144     46.36853     46.36853    44.395147    95451.368   -4002.9771    550.09972   -3452.8774   -3420.3014 
 3975000    470.37365    46.281705    46.281705    44.312016    94916.171   -4008.2756     547.1443   -3461.1313   -3461.2375 
 3980000    480.30914    46.270507    46.270507    44.301295    94847.295   -4009.6829    558.70138   -3450.9816   -3460.5226 
 3985000    472.18859    46.318258    46.318258    44.347014    95141.244   -3999.1127    549.25546   -3449.8572   -3452.0398 
 3990000     462.9552    46.328591    46.328591    44.356907    95204.932   -3995.6481    538.51507    -3457.133   -3539.5651 
 3995000    478.25695    46.256885    46.256885    44.288253    94763.551   -4002.5644    556.31425   -3446.2502    -3423.718 
 4000000    465.23679    46.379813    46.379813    44.405949    95521.063   -3997.7767    541.16904   -3456.6077   -3528.4469 
 4005000    474.81165    46.408854    46.408854    44.433755     95700.61   -3998.1838    552.30663   -3445.8772   -3430.7051 
 4010000    470.12796    46.405885    46.405885    44.430912    95682.241   -3996.0618    546.85851   -3449.2033   -3545.4332 
 4015000    480.63282    46.428918    46.428918    44.452964    95824.784   -4003.7771    559.07788   -3444.6992   -3428.5246 
 4020000    473.65542    46.321418    46.321418    44.350039    95160.714   -4003.0743    550.96169   -3452.1126    -3497.109 
 4025000    474.73945     46.44588     46.44588    44.469205    95929.847   -3987.1565    552.22265   -3434.9338   -3364.4846 
 4030000    471.01756    46.441743    46.441743    44.465244    95904.217   -4001.2847     547.8933   -3453.3914   -3528.6039 
 4035000    479.32606    46.357058    46.357058    44.384162    95380.536   -3990.0515    557.55785   -3432.4937   -3409.6126 
 4040000    472.23688    46.393654    46.393654    44.419201    95606.608   -3990.6744    549.31163   -3441.3628   -3351.3804 
 4045000    473.77182    46.356063    46.356063     44.38321    95374.397   -3991.3639    551.09709   -3440.2668   -3557.8374 
 4050000    479.62344    46.402081    46.402081     44.42727    95658.716    -3995.962    557.90376   -3438.0583   -3514.0762 
 4055000    473.25309    46.375765    46.375765    44.402074    95496.055   -3985.8184    550.49369   -3435.3247   -3390.2305 
 4060000    474.56813    46.330181    46.330181    44.358429    95214.731   -3997.8475    552.02337   -3445.8241     -3445.45 
 4065000    469.49033    46.380212    46.380212    44.406331     95523.53   -3991.4364     546.1168   -3445.3196   -3464.4089 
 4070000    479.88095    46.355841    46.355841    44.382997    95373.023    -3993.847     558.2033   -3435.6437   -3455.7193 
 4075000    472.66361    46.342717    46.342717    44.370432    95292.044   -4000.1692      549.808   -3450.3612   -3464.6329 
 4080000    477.18628      46.3751      46.3751    44.401437    95491.945   -3999.1585    555.06882   -3444.0896   -3437.1518 
 4085000     479.3436    46.368173    46.368173    44.394805    95449.161   -3991.3556    557.57825   -3433.7774   -3451.7718 
 4090000    471.16773    46.418146    46.418146    44.442651    95758.102   -3993.9099    548.06798   -3445.8419   -3445.5731 
 4095000    484.84582    46.373354    46.373354    44.399765    95481.162    -3987.096    563.97849   -3423.1175   -3413.6234 
 4100000    475.30399    46.400938    46.400938    44.426175    95651.646    -3988.622    552.87933   -3435.7427   -3493.1929 
 4105000     480.2681    46.357627    46.357627    44.384707    95384.049   -3993.4906    558.65364    -3434.837   -3380.0453 
 4110000    475.17316    46.396932    46.396932     44.42234    95626.875   -3988.3383    552.72715   -3435.6112   -3336.1182 
 4115000    478.41987    46.401654    46.401654    44.426861    95656.074   -3994.2816    556.50375   -3437.7779   -3528.4884 
 4120000    477.24955    46.437937    46.437937      44.4616    95880.639   -3977.9014    555.14242    -3422.759   -3502.0098 
 4125000    489.23856    46.347363    46.347363    44.374881    95320.708   -3985.7939    569.08818   -3416.7058   -3433.1456 
 4130000    491.30503    46.432539    46.432539    44.456431    95847.205    -3983.998    571.49193   -3412.5061   -3429.5919 
 4135000    481.06972    46.395761    46.395761    44.421219    95619.636   -3982.3943    559.58609   -3422.8082   -3401.1807 
 4140000    480.19205     46.43737     46.43737    44.461057    95877.128   -3986.2737    558.56517   -3427.7085   -3468.6585 
 4145000    483.64981    46.414388    46.414388    44.439053    95734.848   -3986.7078    562.58729   -3424.1205   -3448.8658 
 4150000    478.52034    46.366263    46.366263    44.392976    95437.367   -3990.0366    556.62063    -3433.416   -3420.8559 
 4155000    489.58531    46.377494    46.377494    44.403729    95506.733   -3992.8982    569.49153   -3423.4067   -3418.7241 
 4160000    484.33175    46.397877    46.397877    44.423245    95632.718   -3986.8876    563.38052   -3423.5071   -3412.8687 
 4165000     479.7604    46.326602    46.326602    44.355003    95192.672   -3984.3964    558.06308   -3426.3333    -3352.754 
 4170000    490.23676    46.378212    46.378212    44.404416    95511.172   -3986.3475     570.2493   -3416.0982   -3476.7315 
 4175000    476.47962    46.342829    46.342829    44.370539    95292.733   -3994.6957    554.24683   -3440.4489   -3360.6849 
 4180000    474.24669     46.35803     46.35803    44.385093    95386.534   -3985.5297    551.64946   -3433.8802   -3380.6868 
 4185000    482.28093    46.426469    46.426469     44.45062    95809.622   -3975.7168    560.99498   -3414.7218   -3353.1572 
 4190000    486.79508    46.382359    46.382359    44.408387    95536.796   -3980.8497     566.2459   -3414.6038   -3405.3596 
 4195000    479.50484    46.425024    46.425024    44.449237    95800.679   -3974.4447     557.7658   -3416.6789   -3388.9329 
 4200000    481.63905    46.405841    46.405841    44.430869    95681.968   -3984.0972    560.24834   -3423.8489   -3377.5872 
 4205000    477.81255    46.407941    46.407941    44.432881    95694.963   -3967.2497    555.79731   -3411.4524   -3434.1743 
 4210000    485.99031     46.43568     46.43568    44.459438    95866.658   -3964.7088    565.30978   -3399.3991   -3401.2553 
 4215000    488.25512    46.316246    46.316246    44.345088    95128.846   -3978.8752    567.94424    -3410.931   -3318.2973 
 4220000     481.9348    46.412164    46.412164    44.436923    95721.086   -3975.7284    560.59236    -3415.136   -3485.9273 
 4225000    487.67572    46.458566    46.458566    44.481351    96008.476   -3976.8863    567.27027    -3409.616   -3377.3489 
 4230000    486.13242    46.413115    46.413115    44.437834     95726.97   -3973.9098    565.47509   -3408.4347    -3446.889 
 4235000    481.76781    46.426029    46.426029    44.450199      95806.9   -3981.0175    560.39812   -3420.6194   -3389.0044 
 4240000    484.75562    46.429645    46.429645    44.453661    95829.288   -3978.8766    563.87358    -3415.003   -3473.7606 
 4245000    489.97346    46.477489    46.477489    44.499468    96125.836   -3972.3274    569.94303   -3402.3844   -3367.6226 
 4250000    481.01384    46.380405    46.380405    44.406516    95524.717   -3981.2516    559.52109   -3421.7305   -3385.2432 
 4255000    480.53972    46.437062    46.437062    44.460762    95875.221   -3965.3213    558.96959   -3406.3517   -3310.1245 
 4260000    487.62402    46.466059    46.466059    44.488525    96054.937    -3959.105    567.21013   -3391.8949   -3370.8174 
 4265000    490.49028    46.409888    46.409888    44.434745    95707.007   -3964.2312     570.5442    -3393.687   -3403.8352 
 4270000    482.27822    46.446145    46.446145    44.469459    95931.491   -3958.5832    560.99183   -3397.5914   -3421.9141 
 4275000    488.00493    46.427234    46.427234    44.451352    95814.359   -3972.2123    567.65322   -3404.5591   -3405.2582 
 4280000    491.31282    46.387429    46.387429    44.413241    95568.128   -3969.7451    571.50099   -3398.2441   -3456.8722 
 4285000    485.36104    46.380724    46.380724    44.406821    95526.689   -3980.0706    564.57781   -3415.4928   -3455.2586 
 4290000    484.39046    46.421851    46.421851    44.446199    95781.037   -3972.1333    563.44882   -3408.6845   -3470.0434 
 4295000    490.10022    46.495545    46.495545    44.516756    96237.913   -3972.3004    570.09047   -3402.2099   -3394.3962 
 4300000    484.10824    46.430366    46.430366    44.454351    95833.753   -3970.7402    563.12053   -3407.6196   -3409.2091 
 4305000     492.6914    46.491294    46.491294    44.512686    96211.519    -3980.783    573.10457   -3407.6785   -3395.3661 
 4310000    486.05059    46.418468    46.418468    44.442959    95760.095   -3960.5456     565.3799   -3395.1657   -3330.6118 
 4315000    493.30698    46.445696    46.445696    44.469028    95928.706   -3975.8087    573.82063   -3401.9881   -3367.0572 
 4320000    491.77621    46.458912    46.458912    44.481682     96010.62   -3967.8725    572.04001   -3395.8324   -3456.8077 
 4325000    493.68432    46.452765    46.452765    44.475796    95972.513   -3975.9181    574.25955   -3401.6585   -3432.5765 
 4330000    489.87083    46.391591    46.391591    44.417226    95593.855    -3970.062    569.82365   -3400.2383   -3467.7076 
 4335000    492.26532    46.395831    46.395831    44.421286    95620.068   -3970.0861    572.60895   -3397.4772   -3432.5377 
 4340000    491.25066    46.407421    46.407421    44.432383    95691.746   -3976.0577    571.42868    -3404.629   -3349.2339 
 4345000     489.8238    46.356974    46.356974    44.384083     95380.02   -3983.4694    569.76894   -3413.7005    -3463.057 
 4350000    490.18289    46.517177    46.517177    44.537467    96372.299   -3969.6289    570.18664   -3399.4422   -3433.0089 
 4355000    492.82702    46.427836    46.427836    44.451929    95818.087   -3968.4486    573.26233   -3395.1862   -3476.2375 
 4360000    492.52909    46.487506    46.487506    44.509059    96188.001   -3962.4482    572.91577   -3389.5324    -3293.006 
 4365000    490.04948    46.472907    46.472907    44.495081    96097.409   -3963.1598    570.03146   -3393.1283    -3439.152 
 4370000    499.02754    46.431852    46.431852    44.455773     95842.95   -3964.8639    580.47484    -3384.389   -3332.4447 
 4375000    493.21441    46.431333    46.431333    44.455276    95839.737   -3968.7494    573.71294   -3395.0365   -3379.3817 
 4380000    496.34239    46.533163    46.533163    44.552773    96471.691   -3962.6499    577.35145   -3385.2985   -3400.7756 
 4385000    486.31879    46.425159    46.425159    44.449366    95801.514   -3957.6622    565.69187   -3391.9703    -3403.847 
 4390000    491.89735    46.451756    46.451756     44.47483     95966.26   -3964.1909    572.18092     -3392.01   -3413.6449 
 4395000    497.10853    46.447119    46.447119    44.470391    95937.525   -3957.8338    578.24263   -3379.5911   -3453.1278 
 4400000    494.56181    46.496082    46.496082     44.51727    96241.248   -3952.8581    575.28025   -3377.5779   -3357.9257 
 4405000    493.17521    46.430175    46.430175    44.454168    95832.567   -3972.6844    573.66734    -3399.017   -3388.6709 
 4410000    488.66809    46.520405    46.520405    44.540558    96392.363   -3956.6829    568.42461   -3388.2583    -3475.378 
 4415000    502.26293    46.451223    46.451223     44.47432    95962.959   -3956.8656    584.23829   -3372.6273   -3361.7506 
 4420000    492.37947    46.471548    46.471548    44.493781    96088.983   -3962.7514    572.74173   -3390.0097   -3403.1751 
 4425000    495.34074    46.437973    46.437973    44.461634    95880.865   -3966.5451    576.18632   -3390.3587   -3408.4072 
 4430000    494.37823    46.495586    46.495586    44.516795    96238.169    -3946.798    575.06671   -3371.7313   -3318.8711 
 4435000     493.7545    46.407575    46.407575    44.432529    95692.693   -3960.7122    574.34118    -3386.371   -3315.4353 
 4440000    491.13411    46.434004    46.434004    44.457834    95856.279   -3953.5113    571.29312   -3382.2182     -3370.06 
 4445000    491.93133    46.471431    46.471431    44.493668    96088.252   -3966.2219    572.22045   -3394.0014   -3425.2357 
 4450000    497.07932    46.490594    46.490594    44.512015     96207.17   -3955.0837    578.20866   -3376.8751   -3424.1178 
 4455000    497.45728     46.53739     46.53739     44.55682    96497.981   -3953.6674     578.6483   -3375.0191   -3457.4767 
 4460000    491.38737    46.408764    46.408764    44.433668    95700.052   -3958.3893    571.58771   -3386.8016   -3345.1284 
 4465000    493.62116    46.541885    46.541885    44.561124     96525.95    -3955.911    574.18608   -3381.7249    -3369.887 
 4470000    491.69298    46.501988    46.501988    44.522924    96277.924   -3955.0809     571.9432   -3383.1377   -3357.9938 
 4475000    490.49397    46.532915    46.532915    44.552535    96470.147   -3958.4586    570.54849   -3387.9101   -3370.5133 
 4480000    494.34277    46.558539    46.558539    44.577069    96629.606    -3962.111    575.02546   -3387.0855   -3415.7543 
 4485000    498.30871    46.472675    46.472675    44.494859    96095.972   -3961.8563    579.63869   -3382.2176   -3344.5563 
 4490000    500.16958    46.553284    46.553284    44.572037    96596.885   -3946.5286    581.80328   -3364.7253   -3388.4302 
 4495000    502.95277    46.518241    46.518241    44.538485    96378.909   -3953.8203    585.04072   -3368.7795   -3428.2811 
 4500000    489.85963    46.486458    46.486458    44.508055    96181.497   -3946.4476    569.81062    -3376.637   -3392.9864 
 4505000     503.1838    46.420118    46.420118    44.444539    95770.307   -3958.7758    585.30946   -3373.4663   -3376.6704 
 4510000    496.76643     46.48931     46.48931    44.510786    96199.203   -3944.9822    577.84469   -3367.1375   -3328.6504 
 4515000    501.44647    46.535423    46.535423    44.554937    96485.748    -3953.494    583.28858   -3370.2054    -3414.097 
 4520000    500.47666    46.501841    46.501841    44.522783     96277.01   -3953.1165    582.16048   -3370.9561   -3312.8181 
 4525000    496.35531    46.551118    46.551118    44.569964    96583.406   -3938.9924    577.36647   -3361.6259   -3409.6516 
 4530000    489.81533        46.46        46.46    44.482724    96017.365   -3953.7166     569.7591   -3383.9575   -3370.4066 
 4535000    498.64703     46.52207     46.52207    44.542152    96402.715   -3945.1155    580.03223   -3365.0833   -3349.8958 
 4540000    495.03689    46.465782    46.465782    44.488259    96053.217   -3950.5679    575.83288    -3374.735   -3311.4714 
 4545000    503.68036    46.491905    46.491905     44.51327     96215.31   -3949.3639    585.88706   -3363.4769   -3266.7956 
 4550000    499.33422    46.476451    46.476451    44.498475    96119.399   -3948.7198    580.83157   -3367.8883    -3320.689 
 4555000    497.62942    46.501025    46.501025    44.522002    96271.943   -3946.0119    578.84853   -3367.1634   -3355.2901 
 4560000    497.83232     46.46136     46.46136    44.484025    96025.794    -3943.602    579.08455   -3364.5174   -3435.1978 
 4565000    497.20131    46.560118    46.560118     44.57858    96639.433   -3941.5137    578.35055   -3363.1632    -3373.211 
 4570000    497.69856    46.472392    46.472392    44.494588    96094.214   -3948.3486    578.92896   -3369.4196   -3403.5556 
 4575000    500.47662    46.440752    46.440752    44.464295    95898.076   -3941.5696    582.16043   -3359.4092   -3311.0243 
 4580000     505.7372      46.4346      46.4346    44.458405    95859.971   -3941.3849    588.27961   -3353.1053   -3345.9171 
 4585000    500.54401    46.451851    46.451851    44.474921    95966.849   -3942.4531    582.23883   -3360.2143   -3360.0902 
 4590000    505.33747    46.555706    46.555706    44.574357    96611.968    -3939.283    587.81463   -3351.4684    -3388.669 
 4595000    502.51445    46.555582    46.555582    44.574238    96611.195   -3945.4209    584.53086     -3360.89   -3318.9441 
 4600000    502.55118    46.557058    46.557058    44.575651    96620.383   -3943.1904    584.57359   -3358.6168   -3342.1607 
 4605000    498.73291    46.577372    46.577372      44.5951     96746.91   -3948.8589    580.13213   -3368.7268   -3395.2157 
 4610000    503.01179    46.526908    46.526908    44.546784    96432.794   -3940.4703    585.10937   -3355.3609   -3326.1672 
 4615000    501.50109    46.463961    46.463961    44.486516    96041.922     -3955.14    583.35211   -3371.7879   -3411.5889 
 4620000    501.83154    46.535877    46.535877    44.555371    96488.569    -3942.205    583.73649   -3358.4685   -3330.7072 
 4625000    510.76111    46.576118    46.576118    44.593899    96739.095   -3937.4483    594.12348   -3343.3248   -3343.0837 
 4630000    507.55359      46.5992      46.5992    44.615999    96882.994   -3935.0868    590.39245   -3344.6944   -3377.9468 
 4635000    503.88637    46.447894    46.447894    44.471133    95942.329   -3954.2592    586.12669   -3368.1325   -3342.5119 
 4640000    507.32701     46.44113     46.44113    44.464657    95900.418   -3943.7155    590.12889   -3353.5866   -3291.0464 
 4645000    503.06621      46.5675      46.5675    44.585648    96685.405   -3937.7249    585.17267   -3352.5522   -3363.7577 
 4650000    503.50105    46.548541    46.548541    44.567496    96567.363   -3938.4014    585.67849   -3352.7229    -3411.744 
 4655000    499.18195     46.59618     46.59618    44.613108    96864.158     -3938.96    580.65446   -3358.3055   -3331.2511 
 4660000    505.64227    46.527433    46.527433    44.547286    96436.055   -3931.1858    588.16918   -3343.0167   -3383.1448 
 4665000    506.15525    46.499397    46.499397    44.520444    96261.835   -3945.4895    588.76588   -3356.7236    -3358.071 
 4670000    505.68095     46.57172     46.57172    44.589688    96711.693   -3940.8478    588.21418   -3352.6336   -3437.7577 
 4675000    511.68571    46.515654    46.515654    44.536009    96362.831   -3937.4549    595.19898   -3342.2559    -3235.095 
 4680000    506.40925    46.569248    46.569248    44.587322    96696.295    -3939.718    589.06134   -3350.6566    -3343.534 
 4685000    513.14696    46.488382    46.488382    44.509897    96193.439   -3940.8005    596.89872   -3343.9018   -3337.2294 
 4690000    516.97978    46.571981    46.571981    44.589939    96713.324   -3935.1077    601.35711   -3333.7506   -3326.4148 
 4695000    509.36078    46.563861    46.563861    44.582164    96662.741   -3931.0238    592.49459   -3338.5293   -3403.6651 
 4700000     518.0667    46.619501    46.619501    44.635436     97009.67   -3937.4385    602.62143    -3334.817   -3356.3418 
 4705000    503.56068    46.497238    46.497238    44.518376    96248.423    -3926.979    585.74785   -3341.2312   -3336.4234 
 4710000    507.76397    46.547936    46.547936    44.566917    96563.602   -3933.5249    590.63716   -3342.8878   -3348.9573 
 4715000    517.09712    46.484671    46.484671    44.506345    96170.405   -3930.1491     601.4936   -3328.6555    -3317.243 
 4720000    511.37055     46.54754     46.54754    44.566538    96561.136   -3930.8896    594.83239   -3336.0572   -3371.6677 
 4725000    504.65636    46.498511    46.498511    44.519596    96256.334   -3926.0718    587.02236   -3339.0495   -3341.4887 
 4730000    515.88135    46.609502    46.609502    44.625863    96947.266   -3927.4464     600.0794    -3327.367   -3350.3988 
 4735000    511.91742    46.555048    46.555048    44.573726    96607.866   -3925.3507    595.46851   -3329.8821   -3347.7717 
 4740000    518.91264    46.541891    46.541891    44.561129    96525.982    -3947.033    603.60544   -3343.4276   -3360.7519 
 4745000    506.68209    46.670907    46.670907    44.684654    97330.932   -3929.8804    589.37871   -3340.5017     -3390.89 
 4750000    503.57303    46.529051    46.529051    44.548836    96446.117   -3937.4421    585.76222   -3351.6798   -3403.9631 
 4755000    502.19929    46.526939    46.526939    44.546814    96432.985   -3925.8482    584.16427    -3341.684    -3392.669 
 4760000     505.8973     46.50446     46.50446    44.525291    96293.278   -3929.8436    588.46583   -3341.3778   -3339.8899 
 4765000    513.83305    46.571529    46.571529    44.589506    96710.504   -3938.7915    597.69679   -3341.0947   -3311.7361 
 4770000    511.07632    46.512717    46.512717    44.533197    96344.579   -3935.0015    594.49014   -3340.5114   -3328.3294 
 4775000    505.11797    46.609043    46.609043    44.625423    96944.398    -3921.916    587.55931   -3334.3567   -3368.1001 
 4780000     511.3536     46.57401     46.57401    44.591882    96725.963   -3918.9589    594.81266   -3324.1462   -3353.2242 
 4785000    515.72095    46.524894    46.524894    44.544856    96420.272   -3923.4939    599.89282   -3323.6011    -3343.686 
 4790000    512.68616    46.526642    46.526642    44.546529    96431.135   -3925.6662    596.36271   -3329.3035   -3304.9652 
 4795000    512.92846    46.633115    46.633115    44.648471    97094.682   -3920.4931    596.64457   -3323.8485   -3340.3124 
 4800000    517.27477    46.611253    46.611253    44.627539    96958.188   -3917.4618    601.70025   -3315.7616   -3382.7807 
 4805000    519.99573    46.637629    46.637629    44.652793     97122.88   -3923.3996    604.86529   -3318.5343   -3305.9453 
 4810000    517.48067    46.487359    46.487359    44.508918    96187.088     -3924.41    601.93975   -3322.4703   -3199.1003 
 4815000     517.3231     46.56386     46.56386    44.582164    96662.739    -3917.028    601.75646   -3315.2716   -3246.1693 
 4820000    518.64525    46.553837    46.553837    44.572567     96600.33   -3926.8521    603.29441   -3323.5577   -3421.4116 
 4825000    519.30954    46.576476    46.576476    44.594242    96741.325   -3923.7427    604.06711   -3319.6756   -3301.1649 
 4830000     517.8419    46.545114    46.545114    44.564215     96546.04   -3919.5689    602.35993    -3317.209   -3299.4711 
 4835000    520.20638    46.549033    46.549033    44.567967    96570.426   -3932.6925    605.11033   -3327.5822   -3394.4737 
 4840000    518.15613    46.511995    46.511995    44.532505    96340.092   -3922.0416    602.72545   -3319.3162   -3289.2788 
 4845000    518.24519    46.547662    46.547662    44.566654    96561.892   -3923.5937    602.82905   -3320.7646   -3300.1221 
 4850000    510.89653    46.675854    46.675854    44.689391    97361.884   -3919.2658      594.281   -3324.9848   -3345.7208 
 4855000    506.91778    46.586896    46.586896    44.604219    96806.274   -3920.1109    589.65287    -3330.458   -3271.6222 
 4860000    518.20265    46.454991    46.454991    44.477927    95986.311   -3927.8216    602.77956   -3325.0421   -3284.1601 
 4865000    515.21149    46.582164    46.582164    44.599689    96776.778   -3926.7692    599.30021    -3327.469   -3295.5141 
 4870000    511.78352    46.628293    46.628293    44.643854    97064.566   -3918.5006    595.31275   -3323.1878   -3307.5118 
 4875000    501.89982    46.581175    46.581175    44.598742    96770.612   -3916.1995    583.81591   -3332.3836   -3392.7392 
 4880000    509.21038    46.604218    46.604218    44.620804    96914.296   -3915.3268    592.31964   -3323.0072   -3267.6698 
 4885000    512.32931    46.544618    46.544618    44.563741    96542.954   -3923.4263    595.94762   -3327.4787   -3273.3744 
 4890000     516.0696    46.608617    46.608617    44.625016    96941.741   -3918.1817    600.29837   -3317.8834   -3346.1086 
 4895000    521.08222     46.52873     46.52873    44.548528    96444.119   -3925.5758    606.12911   -3319.4467   -3420.8654 
 4900000    515.45459    46.562882    46.562882    44.581227    96656.645   -3914.1208    599.58299   -3314.5378   -3381.7834 
 4905000    520.09707    46.585226    46.585226     44.60262     96795.86   -3910.2437    604.98318   -3305.2605   -3357.1208 
 4910000    518.82481    46.555033    46.555033    44.573712    96607.774   -3911.1626    603.50327   -3307.6593   -3362.4784 
 4915000    515.87337    46.599886    46.599886    44.616656    96887.272   -3921.5037    600.07012   -3321.4336   -3340.1477 
 4920000    512.83265     46.54995     46.54995    44.568845    96576.135   -3917.6349    596.53311   -3321.1018   -3333.6138 
 4925000    526.92999    46.577798    46.577798    44.595508    96749.564   -3914.5694    612.93131   -3301.6381   -3325.3271 
 4930000    528.49473    46.662334    46.662334    44.676446    97277.304   -3912.9983    614.75143   -3298.2469   -3276.4602 
 4935000    525.57863    46.598938    46.598938    44.615748    96881.358   -3923.4212    611.35939   -3312.0618   -3308.4722 
 4940000    519.30087    46.504644    46.504644    44.525468    96294.425   -3936.1682    604.05703   -3332.1112   -3291.9364 
 4945000    518.13315     46.60494     46.60494    44.621495    96918.801   -3916.5173    602.69872   -3313.8186   -3276.1122 
 4950000    508.13234    46.561713    46.561713    44.580108    96649.365   -3915.0298    591.06566   -3323.9641   -3331.3561 
 4955000    525.14538    46.640347    46.640347    44.655395    97139.864   -3910.2506    610.85543   -3299.3952   -3241.6115 
 4960000    516.72802     46.66058     46.66058    44.674767     97266.34   -3906.3092    601.06425    -3305.245   -3306.6515 
 4965000    522.00095    46.589731    46.589731    44.606933    96823.944   -3904.1236    607.19779   -3296.9258    -3265.615 
 4970000    517.87885    46.626639    46.626639     44.64227    97054.235   -3915.2835    602.40292   -3312.8806   -3392.7647 
 4975000    516.09401    46.614933    46.614933    44.631063    96981.157   -3899.0221    600.32677   -3298.6953   -3336.3816 
 4980000    520.06012     46.57733     46.57733     44.59506    96746.649   -3911.9427    604.94019   -3307.0025   -3402.8926 
 4985000    526.50536    46.590187    46.590187     44.60737    96826.786   -3910.2001    612.43738   -3297.7627   -3129.7971 
 4990000    527.67625    46.604797    46.604797    44.621358    96917.904   -3918.2705    613.79937   -3304.4711   -3296.3854 
 4995000    523.70496    46.641431    46.641431    44.656433    97146.636   -3915.6949    609.17992    -3306.515   -3264.4913 
 5000000    517.71446    46.618592    46.618592    44.634566    97003.993   -3910.8523    602.21169   -3308.6406   -3368.7215 
 5005000    525.24625    46.549449    46.549449    44.568365    96573.014    -3901.202    610.97276   -3290.2292   -3276.8965 
 5010000     525.2985    46.668659    46.668659    44.682503    97316.872   -3907.3528    611.03354   -3296.3193   -3299.5261 
 5015000     521.7518    46.564809    46.564809    44.583072    96668.647   -3905.1194    606.90798   -3298.2114   -3350.8612 
 5020000     522.3728    46.508302    46.508302     44.52897    96317.147   -3903.8554    607.63034    -3296.225   -3273.6229 
 5025000    519.44775    46.671583    46.671583    44.685302    97335.165   -3898.5911    604.22788   -3294.3632   -3276.8102 
 5030000    518.53277    46.678623    46.678623    44.692043    97379.219   -3897.3907    603.16356   -3294.2271    -3323.204 
 5035000    527.64489    46.675838    46.675838    44.689376    97361.786   -3897.8016    613.76289   -3284.0387   -3356.8426 
 5040000    522.48731    46.653388    46.653388    44.667881    97221.367   -3889.2455    607.76353   -3281.4819   -3377.4616 
 5045000    523.58836    46.720687    46.720687    44.732316    97642.709   -3893.0876    609.04429   -3284.0433    -3339.135 
 5050000    528.14085    46.728288    46.728288    44.739594    97690.376   -3898.3646     614.3398   -3284.0248   -3422.7019 
 5055000    529.70429    46.629379    46.629379    44.644894     97071.35    -3898.252    616.15842   -3282.0936   -3222.9637 
 5060000    524.71754    46.701041    46.701041    44.713506    97519.585   -3902.2113    610.35776   -3291.8535   -3270.4327 
 5065000    525.67885    46.733328    46.733328     44.74442    97721.991   -3892.8376    611.47598   -3281.3617   -3295.3815 
 5070000    522.65491    46.673714    46.673714    44.687342    97348.493   -3879.7819    607.95849   -3271.8235   -3303.7614 
 5075000    529.90052    46.579255    46.579255    44.596903    96758.647   -3902.0492    616.38666   -3285.6625   -3219.5706 
 5080000    534.08693    46.677672    46.677672    44.691132    97373.264   -3898.9154    621.25635    -3277.659   -3251.8742 
 5085000    525.66109    46.619162    46.619162    44.635112    97007.553   -3898.8229    611.45532   -3287.3676   -3350.3569 
 5090000    532.84252     46.71857     46.71857    44.730289    97629.439   -3891.0947    619.80884   -3271.2859   -3267.7879 
 5095000    522.94848    46.622101    46.622101    44.637926    97025.903   -3893.9095    608.29997   -3285.6096    -3174.245 
 5100000    529.71195    46.700461    46.700461    44.712951    97515.955   -3890.4055    616.16732   -3274.2382    -3265.986 
 5105000    528.80796    46.721027    46.721027    44.732642    97644.844   -3884.0229    615.11579   -3268.9071   -3273.9385 
 5110000    526.51023    46.624674    46.624674    44.640389    97041.964   -3883.1249    612.44305   -3270.6819    -3357.461 
 5115000    532.41423    46.688506    46.688506    44.701505    97441.084   -3898.0382    619.31064   -3278.7275   -3267.5347 
 5120000    531.26772    46.613663    46.613663    44.629847    96973.233   -3899.1868    617.97701   -3281.2098   -3281.0218 
 5125000    529.64434    46.650687    46.650687    44.665295    97204.485   -3899.8972    616.08867   -3283.8085   -3306.9772 
 5130000    529.53973    46.689187    46.689187    44.702157    97445.346   -3891.6869    615.96699   -3275.7199   -3213.9092 
 5135000    527.29051    46.732193    46.732193    44.743333     97714.87   -3885.8149    613.35067   -3272.4642   -3332.1585 
 5140000    526.59693    46.700304    46.700304      44.7128    97514.967   -3894.0649    612.54389    -3281.521   -3237.7223 
 5145000    535.00333    46.719157    46.719157    44.730851    97633.119   -3888.2909    622.32232   -3265.9685   -3364.2363 
 5150000    531.00224    46.715419    46.715419    44.727272    97609.684   -3896.3855     617.6682   -3278.7173   -3277.2341 
 5155000    526.32751    46.711635    46.711635     44.72365    97585.969   -3898.7982     612.2305   -3286.5677   -3272.8535 
 5160000    536.84497    46.666262    46.666262    44.680207    97301.876   -3883.6924    624.46453   -3259.2278   -3234.6056 
 5165000    522.97863    46.635051    46.635051    44.650325    97106.776   -3894.7598    608.33505   -3286.4248   -3272.4777 
 5170000    523.75944    46.599691    46.599691     44.61647    96886.058   -3902.6948    609.24329   -3293.4515   -3261.3079 
 5175000     532.4942    46.656398    46.656398    44.670763    97240.186   -3887.0954    619.40366   -3267.6918   -3303.6193 
 5180000    537.59116    46.634197    46.634197    44.649507    97101.441   -3893.1825    625.33251     -3267.85    -3340.697 
 5185000    535.03928    46.620842    46.620842     44.63672     97018.04   -3889.3342    622.36414     -3266.97   -3316.2608 
 5190000    541.12572    46.684503    46.684503    44.697672     97416.02   -3873.6334    629.44396   -3244.1894   -3338.2167 
 5195000    531.42687    46.727163    46.727163    44.738517    97683.319    -3880.724    618.16214   -3262.5618   -3271.2495 
 5200000    525.25723    46.702151    46.702151    44.714569    97526.542    -3882.244    610.98554   -3271.2584   -3244.5984 
 5205000    531.92268    46.671482    46.671482    44.685205    97334.532   -3883.3951    618.73887   -3264.6563   -3305.9269 
 5210000    532.04347    46.847661    46.847661    44.853886    98440.976   -3886.5083    618.87937   -3267.6289   -3255.1102 
 5215000    532.23164     46.75513     46.75513    44.765293     97858.82   -3874.4472    619.09826    -3255.349   -3313.6252 
 5220000    530.79855    46.700521    46.700521    44.713008    97516.328   -3881.9061    617.43127   -3264.4749   -3280.7281 
 5225000    528.23266    46.711591    46.711591    44.723607    97585.694   -3882.3481    614.44659   -3267.9015   -3207.4566 
 5230000    532.56376    46.659476    46.659476     44.67371    97259.435   -3893.0996    619.48459    -3273.615   -3228.0642 
 5235000    535.30602    46.661674    46.661674    44.675815    97273.181   -3878.2709    622.67441   -3255.5965   -3276.7163 
 5240000    543.59264    46.609657    46.609657    44.626012    96948.233    -3893.411     632.3135   -3261.0975   -3206.6335 
 5245000    538.90842    46.626116    46.626116    44.641769    97050.968   -3876.7188    626.86477   -3249.8541   -3302.9371 
 5250000    531.44915    46.607682    46.607682    44.624121    96935.908   -3896.3815    618.18805   -3278.1934   -3240.2361 
 5255000    542.40476    46.574792    46.574792     44.59263    96730.834   -3888.3756    630.93175   -3257.4438   -3217.7085 
 5260000    537.31334    46.656969    46.656969    44.671309    97243.755   -3880.2487    625.00935   -3255.2393   -3271.0766 
 5265000    534.81312    46.711492    46.711492    44.723512    97585.069   -3867.0786    622.10107   -3244.9775   -3223.3149 
 5270000     535.9771    46.658391    46.658391    44.672672    97252.651   -3888.1233    623.45501   -3264.6683   -3257.1868 
 5275000    528.45699    46.738747    46.738747    44.749607    97755.985    -3869.667    614.70753   -3254.9594   -3299.2911 
 5280000    532.34122    46.726906    46.726906     44.73827    97681.707   -3879.2591    619.22572   -3260.0334   -3187.2702 
 5285000    540.66944    46.632673    46.632673    44.648048    97091.923   -3880.1601    628.91321   -3251.2469    -3168.741 
 5290000    534.64338    46.649899    46.649899     44.66454    97199.555   -3874.7738    621.90362   -3252.8702   -3250.3333 
 5295000    533.55676    46.585408    46.585408    44.602795    96796.997   -3871.2686    620.63965   -3250.6289   -3252.3482 
 5300000    541.56321    46.701519    46.701519    44.713963    97522.578    -3872.868    629.95285   -3242.9152   -3176.7383 
 5305000    542.22203    46.704065    46.704065    44.716402    97538.532   -3886.7555    630.71919   -3256.0363   -3284.5466 
 5310000    538.55702    46.636089    46.636089    44.651319    97113.262   -3890.4149    626.45601   -3263.9589   -3294.6864 
 5315000     542.2243    46.669159    46.669159    44.682981    97319.999   -3882.2889    630.72183    -3251.567    -3249.151 
 5320000    527.92291    46.695422    46.695422    44.708126    97484.389   -3869.2909    614.08628   -3255.2046   -3385.3408 
 5325000    542.82582    46.754982    46.754982    44.765151    97857.889   -3863.3695    631.42153    -3231.948   -3258.7853 
 5330000    543.18063    46.654037    46.654037    44.668502    97225.425   -3874.7532    631.83425   -3242.9189   -3201.1461 
 5335000    545.81839    46.735503    46.735503    44.746501     97735.63    -3864.714    634.90253   -3229.8114   -3190.7262 
 5340000    535.72775    46.720257    46.720257    44.731905    97640.017    -3873.716    623.16497    -3250.551   -3336.7961 
 5345000    544.63583    46.707528    46.707528    44.719717    97560.231   -3875.8503    633.52696   -3242.3233   -3264.0384 
 5350000    539.96409        46.76        46.76    44.769956    97889.403   -3867.4398    628.09274   -3239.3471   -3243.8869 
 5355000    534.27051    46.733991    46.733991    44.745054    97726.146   -3866.0451    621.46989   -3244.5752   -3214.8539 
 5360000    542.84355    46.805327    46.805327    44.813354    98174.345   -3868.3241    631.44215   -3236.8819   -3287.6115 
 5365000    547.83407    46.768901    46.768901    44.778479    97945.316   -3871.4656    637.24719   -3234.2184   -3239.1142 
 5370000    543.43658    46.778554    46.778554     44.78772    98005.974   -3875.6195    632.13198   -3243.4875   -3316.7784 
 5375000     539.1103    46.723828    46.723828    44.735323    97662.403   -3865.5176     627.0996    -3238.418   -3215.8021 
 5380000    538.79101    46.647108    46.647108    44.661868     97182.11   -3876.6766     626.7282   -3249.9484   -3182.8246 
 5385000    541.32369    46.718962    46.718962    44.730665    97631.898   -3870.7129    629.67424   -3241.0387   -3276.1379 
 5390000    542.36129    46.801495    46.801495    44.809685    98150.232   -3869.6965    630.88119   -3238.8153   -3224.2145 
 5395000    535.00728    46.763267    46.763267    44.773084    97909.923    -3863.837    622.32691   -3241.5101   -3263.5088 
 5400000    548.12376    46.735886    46.735886    44.746868    97738.034   -3863.7602    637.58416    -3226.176   -3260.9912 
 5405000    543.54824    46.763889    46.763889    44.773679    97913.825   -3864.4312    632.26186   -3232.1693   -3179.8807 
 5410000    538.78635    46.733014    46.733014    44.744118    97720.016   -3864.4429    626.72277   -3237.7201   -3271.2017 
 5415000    541.45266    46.686294    46.686294    44.699387    97427.232   -3862.8351    629.82425   -3233.0108   -3270.8637 
 5420000    548.23423    46.760056    46.760056    44.770009    97889.751   -3884.2024    637.71267   -3246.4897   -3235.4542 
 5425000      547.621    46.699946    46.699946    44.712458    97512.729   -3876.1542    636.99934   -3239.1549   -3231.4668 
 5430000    539.81899    46.742747    46.742747    44.753437    97781.088    -3856.495    627.92395   -3228.5711   -3268.5564 
 5435000    541.18475    46.702936    46.702936     44.71532    97531.456   -3868.7196    629.51262    -3239.207   -3184.1033 
 5440000     542.5667    46.739864    46.739864    44.750677    97762.995   -3854.1754    631.12012   -3223.0553   -3191.2978 
 5445000    550.57609      46.8449      46.8449    44.851243    98423.572    -3857.756    640.43674   -3217.3192   -3216.4118 
 5450000    537.08609    46.779135    46.779135    44.788277    98009.625   -3860.0248    624.74501   -3235.2798   -3221.9116 
 5455000    545.12359     46.80236     46.80236    44.810513    98155.677    -3853.891    634.09433   -3219.7967   -3195.2124 
 5460000    548.41143    46.732163    46.732163    44.743304     97714.68   -3860.9317    637.91878   -3223.0129   -3196.4063 
 5465000    549.86027    46.738402    46.738402    44.749277    97753.821   -3862.2687    639.60409   -3222.6646   -3152.7869 
 5470000    544.74937    46.850925    46.850925    44.857011    98461.551   -3847.8499    633.65902   -3214.1909    -3275.533 
 5475000    554.08882    46.761895    46.761895     44.77177    97901.303   -3858.6023    644.52279   -3214.0795   -3230.6701 
 5480000    546.56876    46.841733    46.841733    44.848211    98403.612   -3855.0035    635.77536   -3219.2281   -3288.1571 
 5485000    553.50742    46.742879    46.742879    44.753564    97781.916   -3860.6006     643.8465   -3216.7541    -3235.515 
 5490000    548.77663    46.733064    46.733064    44.744166     97720.33   -3864.3662    638.34358   -3226.0226   -3240.2731 
 5495000    550.42551    46.839711    46.839711    44.846275    98390.869   -3851.3151    640.26158   -3211.0536   -3247.7848 
 5500000    554.78224    46.805948    46.805948    44.813949    98178.254   -3852.7705    645.32938   -3207.4411   -3259.0495 
 5505000    548.68359      46.7392      46.7392    44.750041    97758.829   -3860.4235    638.23536   -3222.1881    -3199.986 
 5510000    544.24848    46.790994    46.790994    44.799631    98084.181   -3857.0716    633.07639   -3223.9953   -3263.5451 
 5515000    549.69118    46.664347    46.664347    44.678374    97289.897    -3859.271     639.4074   -3219.8636   -3181.2561 
 5520000    546.40849    46.774853    46.774853    44.784177    97982.711   -3850.7582    635.58893   -3215.1693   -3278.2949 
 5525000    546.18283    46.746188    46.746188    44.756732    97802.682   -3856.3986    635.32645   -3221.0722   -3200.6335 
 5530000    549.19266    46.815795    46.815795    44.823376    98240.229   -3854.7928    638.82752   -3215.9653   -3258.3874 
 5535000    542.89856     46.74675     46.74675     44.75727    97806.212    -3848.932    631.50614   -3217.4259   -3268.9058 
 5540000    551.30644    46.792961    46.792961    44.801514    98096.553   -3856.6411    641.28629   -3215.3548   -3226.6047 
 5545000    553.17893     46.71936     46.71936    44.731045    97634.388   -3862.8507    643.46439   -3219.3863   -3238.9953 
 5550000    545.73816     46.80357     46.80357    44.811671    98163.287   -3847.6018     634.8092   -3212.7926    -3197.628 
 5555000    555.80046    46.808887    46.808887    44.816762    98196.747   -3848.7858    646.51379   -3202.2721   -3249.9654 
 5560000    552.63061    46.814043    46.814043    44.821699    98229.203    -3853.365    642.82658   -3210.5384   -3263.4706 
 5565000    548.07933    46.696194    46.696194    44.708866    97489.226   -3862.6663    637.53248   -3225.1338   -3192.0682 
 5570000    551.41158    46.677213    46.677213    44.690693    97370.394   -3854.6881    641.40859   -3213.2795   -3163.1551 
 5575000    548.15736    46.773028    46.773028     44.78243    97971.247   -3846.3858    637.62324   -3208.7625   -3161.0951 
 5580000    551.20258    46.768941    46.768941    44.778517    97945.567   -3845.8861    641.16548   -3204.7207    -3204.097 
 5585000     561.2177    46.827685    46.827685     44.83476    98315.098   -3845.3356    652.81519   -3192.5204   -3137.8074 
 5590000    554.66301    46.824983    46.824983    44.832173    98298.084   -3844.5824     645.1907   -3199.3917   -3212.6415 
 5595000     554.9674    46.811133    46.811133    44.818913    98210.887   -3846.5084    645.54476   -3200.9636   -3221.2213 
 5600000     556.6472    46.808664    46.808664    44.816549    98195.343    -3860.784    647.49873   -3213.2853   -3253.0327 
 5605000    541.50607    46.803131    46.803131    44.811251    98160.529    -3854.774    629.88638   -3224.8876   -3232.7889 
 5610000    563.73193    46.810479    46.810479    44.818286    98206.766   -3844.7935    655.73977   -3189.0538    -3186.777 
 5615000    555.18522    46.760796    46.760796    44.770718    97894.401   -3852.3918    645.79814   -3206.5936   -3181.6115 
 5620000    560.54648    46.737731    46.737731    44.748635    97749.613   -3856.5649    652.03441   -3204.5304   -3251.2936 
 5625000    560.25736    46.830597    46.830597    44.837549    98333.446   -3851.7577    651.69811   -3200.0596   -3151.0218 
 5630000    551.92303    46.823741    46.823741    44.830985    98290.264   -3839.7413    642.00351   -3197.7378   -3263.4227 
 5635000    567.98578    46.761891    46.761891    44.771767    97901.279   -3859.8628     660.6879   -3199.1749   -3137.9925 
 5640000    557.94425      46.7162      46.7162     44.72802    97614.578   -3844.0378    649.00748   -3195.0303   -3215.9664 
 5645000    560.34011    46.809407    46.809407     44.81726    98200.022   -3840.1139    651.79436   -3188.3195   -3200.8579 
 5650000    553.63423    46.798296    46.798296    44.806622     98130.11   -3843.5419    643.99401   -3199.5479   -3250.3939 
 5655000    558.47662    46.808578    46.808578    44.816466    98194.802   -3837.6253    649.62673   -3187.9986   -3264.5514 
 5660000     559.9211    46.821334    46.821334    44.828679    98275.103   -3843.4874    651.30697   -3192.1804    -3166.322 
 5665000    563.41078    46.850735    46.850735    44.856829    98460.353   -3841.1131     655.3662   -3185.7469    -3215.777 
 5670000     557.5573    46.791997    46.791997    44.800591    98090.489   -3855.0937    648.55737   -3206.5363    -3160.719 
 5675000    561.62414    46.909953    46.909953    44.913527    98834.179   -3843.4025    653.28796   -3190.1145   -3207.3603 
 5680000    561.62762    46.776684    46.776684     44.78593     97994.22   -3839.5196    653.29201   -3186.2276   -3146.8789 
 5685000    558.86142    46.839619    46.839619    44.846187    98390.288    -3838.805    650.07434   -3188.7307   -3261.0511 
 5690000    557.00897    46.814665    46.814665    44.822294    98233.117    -3842.409    647.91954   -3194.4895    -3099.434 
 5695000    557.62008    46.907246    46.907246    44.910936    98817.072   -3828.8964    648.63039    -3180.266   -3108.0859 
 5700000    559.30206     46.83941     46.83941    44.845986    98388.967   -3836.1248    650.58689   -3185.5379     -3212.16 
 5705000    564.19463    46.765534    46.765534    44.775255    97924.164   -3848.2905    656.27799   -3192.0125   -3169.5504 
 5710000    561.53297    46.879384    46.879384     44.88426    98641.091   -3841.0808    653.18191   -3187.8989   -3184.5816 
 5715000    551.89476    46.770218    46.770218    44.779739     97953.59   -3857.3281    641.97064   -3215.3574   -3222.6033 
 5720000     564.2362    46.755367    46.755367     44.76552    97860.307    -3842.091    656.32634   -3185.7646    -3215.305 
 5725000    557.45342     46.80049     46.80049    44.808722     98143.91   -3837.5701    648.43654   -3189.1336   -3153.1193 
 5730000    558.33127    46.832917    46.832917    44.839769    98348.057   -3832.7623    649.45766   -3183.3047   -3266.0974 
 5735000    561.05044     46.75908     46.75908    44.769075    97883.623   -3833.5967    652.62063    -3180.976   -3178.7119 
 5740000    559.21255    46.824249    46.824249    44.831471    98293.461   -3832.4549    650.48278   -3181.9721   -3184.6262 
 5745000    562.68358    46.766722    46.766722    44.776392    97931.624   -3843.4869    654.52031   -3188.9666   -3156.0194 
 5750000    561.83772    46.785603    46.785603     44.79447    98050.287   -3834.7732    653.53641   -3181.2368   -3206.9314 
 5755000    565.87581    46.805164    46.805164    44.813198     98173.32   -3823.7463    658.23355   -3165.5128   -3220.4339 
 5760000    554.47504    46.827916    46.827916    44.834981    98316.555   -3833.0224    644.97205   -3188.0504   -3205.2114 
 5765000    559.53005    46.892504    46.892504    44.896821    98723.932   -3836.1891    650.85209    -3185.337   -3153.9038 
 5770000    560.66561    46.807591    46.807591    44.815522    98188.594   -3841.6494      652.173   -3189.4764   -3115.0125 
 5775000     566.4624     46.79225     46.79225    44.800834    98092.084   -3842.3998    658.91589   -3183.4839   -3139.8624 
 5780000    562.62211    46.815791    46.815791    44.823372    98240.202   -3844.0383    654.44881   -3189.5895   -3270.4252 
 5785000    550.94822     46.87988     46.87988    44.884734    98644.219   -3822.8107    640.86961    -3181.941   -3208.2018 
 5790000    563.10344    46.819777    46.819777    44.827189    98265.299   -3839.4125     655.0087   -3184.4038   -3205.0527 
 5795000    559.31743    46.823485    46.823485    44.830739    98288.648   -3824.9278    650.60477    -3174.323   -3056.3833 
 5800000    556.60962    46.912793    46.912793    44.916247    98852.133   -3830.0367    647.45501   -3182.5817   -3224.8036 
 5805000    561.94325    46.897347    46.897347    44.901458    98754.524   -3835.8534    653.65916   -3182.1943   -3217.8134 
 5810000    557.86904    46.846159    46.846159    44.852448    98431.508    -3826.635    648.91998    -3177.715   -3243.6343 
 5815000     568.4683    46.879771    46.879771    44.884629    98643.528   -3825.5824    661.24917   -3164.3332   -3196.4748 
 5820000    569.22623    46.942573    46.942573    44.944759    99040.502   -3826.0823     662.1308   -3163.9515   -3182.2257 
 5825000    563.90742    46.864919    46.864919    44.870409    98549.805   -3828.3905     655.9439   -3172.4466   -3217.6979 
 5830000    563.16709    46.883298    46.883298    44.888006    98665.795   -3817.6682    655.08275   -3162.5855   -3227.7476 
 5835000    557.79036    46.937765    46.937765    44.940155    99010.071   -3828.6896    648.82846   -3179.8611    -3323.841 
 5840000     571.6967    46.810326    46.810326     44.81814    98205.803   -3821.1645    665.00448     -3156.16   -3035.1643 
 5845000    563.29498    46.832871    46.832871    44.839726    98347.769   -3829.6665     655.2315    -3174.435   -3110.6872 
 5850000    564.97456     46.78202     46.78202    44.791038    98027.756   -3837.6469    657.18522   -3180.4617   -3115.0718 
 5855000    570.95638    46.874584    46.874584    44.879663    98610.789   -3830.4075    664.14334   -3166.2642   -3176.3891 
 5860000    559.20547    46.872854    46.872854    44.878007    98599.876   -3836.2498    650.47454   -3185.7753   -3168.0847 
 5865000    558.20622    46.839353    46.839353    44.845932    98388.613   -3823.0003     649.3122   -3173.6881   -3234.9645 
 5870000    566.10431     46.79828     46.79828    44.806607     98130.01   -3839.5649    658.49936   -3181.0655   -3234.9642 
 5875000    573.80085    46.988701    46.988701    44.988923    99332.753   -3816.4409    667.45206   -3148.9888   -3157.1766 
 5880000    566.90492    46.882762    46.882762    44.887493    98662.411   -3818.6655    659.43063   -3159.2349    -3127.958 
 5885000     569.7394    46.859332    46.859332     44.86506    98514.564   -3832.0664    662.72774   -3169.3386   -3188.3127 
 5890000    570.59099    46.847042    46.847042    44.853293    98437.069   -3821.5242    663.71832   -3157.8059   -3145.6019 
 5895000    551.36251    46.846271    46.846271    44.852555    98432.209   -3816.2962    641.35151   -3174.9447   -3190.0603 
 5900000    564.19422    46.847055    46.847055    44.853306    98437.151   -3824.5484    656.27752   -3168.2709   -3213.0477 
 5905000    569.19393    46.783797    46.783797     44.79274    98038.928   -3813.3638    662.09323   -3151.2706   -3111.0317 
 5910000    565.88442     46.85415     46.85415    44.860099    98481.885   -3818.1076    658.24357    -3159.864    -3171.226 
 5915000     566.3899    46.857606    46.857606    44.863408    98503.679   -3824.2204    658.83155   -3165.3888   -3189.8156 
 5920000    561.44617    46.916534    46.916534    44.919828    98875.778   -3811.7987    653.08095   -3158.7178   -3116.0461 
 5925000    568.21235    46.833215    46.833215    44.840055    98349.937   -3812.5249    660.95145   -3151.5734   -3098.4638 
 5930000    568.41507    46.852273    46.852273    44.858302    98470.053   -3824.9714    661.18726   -3163.7841   -3157.4724 
 5935000     568.9777    46.909958    46.909958    44.913531    98834.207   -3810.1951    661.84172   -3148.3534   -3156.3021 
 5940000    569.85325    46.858812    46.858812    44.864562    98511.283   -3824.4477    662.86016   -3161.5875   -3200.3227 
 5945000     574.8987    46.881297    46.881297     44.88609    98653.161   -3819.0647    668.72909   -3150.3356   -3191.4125 
 5950000    567.62703    46.917994    46.917994    44.921226    98885.013    -3830.968     660.2706   -3170.6974   -3150.3321 
 5955000    574.94352     46.86186     46.86186    44.867481    98530.513   -3810.3669    668.78123   -3141.5856   -3155.5677 
 5960000    576.75514    46.793085    46.793085    44.801633    98097.332   -3819.4949    670.88853   -3148.6064   -3156.7305 
 5965000    573.13969    46.858344    46.858344    44.864114    98508.331   -3828.8548    666.68299   -3162.1718   -3048.1732 
 5970000    581.47283    46.804944    46.804944    44.812987    98171.935   -3822.9896     676.3762   -3146.6134   -3110.9798 
 5975000    573.20672    46.858657    46.858657    44.864414    98510.306   -3824.1774    666.76096   -3157.4165   -3199.9021 
 5980000    562.91703    46.918112    46.918112    44.921339    98885.756   -3814.7591    654.79187   -3159.9672   -3189.5259 
 5985000     579.8106     46.95945     46.95945    44.960918    99147.363    -3801.922    674.44267   -3127.4793   -3168.0932 
 5990000    567.26045    46.938509    46.938509    44.940868     99014.78   -3801.6004    659.84419   -3141.7562   -3100.7272 
 5995000    575.54869    46.984361    46.984361    44.984769    99305.236   -3810.6818    669.48517   -3141.1967   -3209.5003 
 6000000     574.0803     46.89336     46.89336    44.897641     98729.34   -3812.9014    667.77712   -3145.1243   -3134.9475 
 6005000    565.43563    46.807545    46.807545    44.815478    98188.304   -3814.2094    657.72153   -3156.4879   -3179.9475 
 6010000    565.09596    46.949052    46.949052    44.950962    99081.517   -3811.8534    657.32642    -3154.527   -3225.6641 
 6015000    572.87712    46.831358    46.831358    44.838277    98338.239   -3811.9461    666.37757   -3145.5686   -3078.2605 
 6020000    571.20508    46.910173    46.910173    44.913737    98835.567   -3818.8957    664.43263   -3154.4631   -3147.7961 
 6025000    572.27182    46.830596    46.830596    44.837547    98333.435   -3809.7486    665.67347   -3144.0751    -3148.329 
 6030000    571.66397    46.914635    46.914635     44.91801    98863.774   -3818.2414    664.96642   -3153.2749   -3131.1319 
 6035000    574.78919    47.000363    47.000363    45.000089    99406.732   -3813.0532    668.60171   -3144.4515   -3162.5125 
 6040000    577.83088      46.9265      46.9265     44.92937    98938.807   -3795.7982    672.13984   -3123.6584   -3101.3185 
 6045000    575.13169    46.989548    46.989548    44.989734    99338.126   -3796.1368    669.00011   -3127.1367   -3174.8316 
 6050000    574.66595    46.980549    46.980549    44.981119    99281.065   -3799.1356    668.45836   -3130.6772   -3117.4652 
 6055000    573.63608    46.807448    46.807448    44.815385    98187.692   -3808.7463     667.2604   -3141.4859   -3075.6896 
 6060000    577.38929    46.921019    46.921019    44.924122    98904.139   -3817.2826    671.62617   -3145.6564   -3106.9055 
 6065000    579.51185    46.867811    46.867811    44.873179    98568.053   -3803.6617    674.09516   -3129.5665   -3087.1157 
 6070000    576.20957    46.817203    46.817203    44.824724    98249.095   -3807.5084    670.25391   -3137.2545   -3163.5582 
 6075000     581.8656    46.931705    46.931705    44.934353    98971.729   -3802.3932    676.83308   -3125.5601   -3139.9803 
 6080000    577.77655    47.015734    47.015734    45.014806    99504.294   -3805.5997    672.07664   -3133.5231   -3022.3035 
 6085000    578.36054    46.884119    46.884119    44.888792    98670.977   -3800.7917    672.75594   -3128.0357   -3116.0843 
 6090000    576.44362    46.909077    46.909077    44.912688    98828.641   -3806.9977    670.52616   -3136.4715   -3020.7491 
 6095000    579.25789    46.826192    46.826192    44.833331    98305.699   -3804.4184    673.79975   -3130.6186   -3107.9369 
 6100000    571.18971    46.929565    46.929565    44.932304    98958.191   -3811.6425    664.41475   -3147.2277   -3172.6257 
 6105000    586.40182    46.953447    46.953447     44.95517    99109.343   -3793.6868    682.10966   -3111.5771   -3045.3956 
 6110000    585.38499    46.977214    46.977214    44.977926    99259.924   -3806.0742    680.92687   -3125.1473   -3163.8284 
 6115000    567.29302    46.886985    46.886985    44.891537    98689.076   -3807.6053    659.88207   -3147.7233   -3260.5683 
 6120000    580.45411    46.933803    46.933803    44.936362    98985.006    -3802.873    675.19121   -3127.6818   -3115.2163 
 6125000    574.41704    46.912964    46.912964     44.91641    98853.214   -3804.9018    668.16881    -3136.733   -3219.4112 
 6130000    582.33814     46.93008     46.93008    44.932797    98961.449   -3800.8566    677.38274   -3123.4738   -3138.5063 
 6135000    575.34326    47.019575    47.019575    45.018484    99528.683   -3797.7099    669.24621   -3128.4637   -3126.3595 
 6140000    589.32219    46.912932    46.912932    44.916379    98853.009   -3795.3048    685.50667   -3109.7982   -3043.6792 
 6145000    574.77448     47.05021     47.05021    45.047815    99723.349    -3794.548     668.5846   -3125.9634   -3158.5552 
 6150000    579.39659    46.980351    46.980351    44.980929    99279.808   -3792.6995    673.96109   -3118.7384   -3033.4677 
 6155000    584.23514    46.992601    46.992601    44.992658    99357.493    -3794.349    679.58935   -3114.7596   -3061.8294 
 6160000    576.04394    46.997409    46.997409    44.997261    99387.989   -3790.3244    670.06125   -3120.2632   -3108.2987 
 6165000    585.69465    46.920544    46.920544    44.923667    98901.135   -3791.7564    681.28707   -3110.4693   -3068.0817 
 6170000    582.81283      47.0795      47.0795    45.075858    99909.705   -3796.8231    677.93491   -3118.8882    -3204.497 
 6175000    579.44756    46.952244    46.952244    44.954019    99101.731   -3782.8593    674.02038   -3108.8389   -3186.7979 
 6180000    586.09489    46.945105    46.945105    44.947183    99056.529   -3801.0765    681.75263   -3119.3239   -3161.6409 
 6185000    583.60543    46.945974    46.945974    44.948015    99062.029   -3798.6088    678.85686    -3119.752   -3077.1569 
 6190000    584.23975    46.989748    46.989748    44.989926    99339.397   -3785.3953    679.59471   -3105.8006    -3082.385 
 6195000    583.55347    47.014538    47.014538    45.013661      99496.7   -3786.5943    678.79643   -3107.7978   -3159.6362 
 6200000    588.96976    46.906243    46.906243    44.909975    98810.733   -3798.5059    685.09672   -3113.4091   -3164.6776 
 6205000    570.97153    47.053891    47.053891     45.05134     99746.76   -3786.2253    664.16096   -3122.0643    -3163.268 
 6210000    585.68963    46.925635    46.925635    44.928542    98933.336   -3792.5065    681.28124   -3111.2252   -3120.6734 
 6215000     579.4246    47.015059    47.015059     45.01416    99500.007    -3778.182    673.99367   -3104.1883   -3151.0102 
 6220000    590.59177    47.002198    47.002198    45.001847    99418.378   -3783.2104    686.98346    -3096.227   -3106.4365 
 6225000    582.68357     46.98577     46.98577    44.986117    99314.167   -3791.0877    677.78455   -3113.3032   -3100.7198 
 6230000    585.10675    46.988104    46.988104    44.988352    99328.967   -3795.6127    680.60321   -3115.0095   -3140.8493 
 6235000    584.05622    46.985212    46.985212    44.985583    99310.627   -3792.6438    679.38123   -3113.2626   -3220.2889 
 6240000    594.38079    47.144179    47.144179    45.137785    100322.05   -3784.2795     691.3909   -3092.8886   -3109.8522 
 6245000    581.60598    46.969009    46.969009    44.970069     99207.92   -3801.2757    676.53109   -3124.7446    -3093.684 
 6250000    585.04239    46.917938    46.917938    44.921173    98884.659   -3801.6569    680.52835   -3121.1286   -3079.0164 
 6255000    582.66584    46.992324    46.992324    44.992393    99355.735   -3776.2934    677.76392   -3098.5295   -3087.9392 
 6260000    586.70088    46.959852    46.959852    44.961303    99149.913   -3790.3657    682.45753   -3107.9082   -3087.9497 
 6265000    590.05081    46.894772    46.894772    44.898992    98738.256   -3792.3468    686.35421   -3105.9926      -3008.2 
 6270000    580.72174    47.019046    47.019046    45.017977    99525.325   -3789.8325    675.50252     -3114.33   -3179.4154 
 6275000    582.32354    46.961821    46.961821    44.963187     99162.38   -3787.6747    677.36576   -3110.3089     -3205.63 
 6280000    584.66096    46.980338    46.980338    44.980917    99279.727   -3780.6112    680.08467   -3100.5266   -3135.6674 
 6285000    586.38444    47.001861    47.001861    45.001523    99416.237   -3785.4856    682.08945   -3103.3961   -3011.4973 
 6290000    594.78771    47.036006    47.036006    45.034215    99633.059   -3768.2083    691.86422    -3076.344   -3072.7804 
 6295000    585.93241    46.989304    46.989304    44.989501    99336.582   -3793.7183    681.56364   -3112.1546   -3143.7175 
 6300000     588.5748    46.865607    46.865607    44.871068    98554.144    -3799.521     684.6373   -3114.8837   -3194.5648 
 6305000    582.27709    47.009376    47.009376    45.008719    99463.933   -3784.1556    677.31172   -3106.8438   -3129.9063 
 6310000     588.2921    46.950555    46.950555    44.952401    99091.031   -3794.6232    684.30846   -3110.3147   -3150.9804 
 6315000    584.24156    47.017757    47.017757    45.016743    99517.139   -3786.4141    679.59683   -3106.8173    -3127.576 
 6320000    588.07775     47.00507     47.00507    45.004596    99436.605   -3788.7737    684.05913   -3104.7146   -3061.4595 
 6325000    593.98546    46.999368    46.999368    44.999137    99400.423   -3773.5025    690.93104   -3082.5714   -3132.6581 
 6330000    592.56032    46.863854    46.863854     44.86939    98543.088   -3779.1349    689.27331   -3089.8616    -3108.244 
 6335000    585.12719    47.054857    47.054857    45.052264      99752.9   -3793.1945    680.62699   -3112.5676   -3108.0693 
 6340000    579.35722    47.098999    47.098999    45.094528     100033.9    -3782.053     673.9153   -3108.1377   -3135.1879 
 6345000    594.23509    47.069475    47.069475     45.06626    99845.899   -3782.1164    691.22141    -3090.895   -3177.8848 
 6350000    591.75059    47.084157    47.084157    45.080317    99939.359    -3783.671    688.33141   -3095.3396   -2985.5457 
 6355000    585.18725    47.053514    47.053514    45.050978    99744.359   -3784.8818    680.69686    -3104.185   -3153.2875 
 6360000     602.9395    47.009891    47.009891    45.009212      99467.2   -3776.1947    701.34648   -3074.8482   -2979.3113 
 6365000    592.01751    47.065346    47.065346    45.062307    99819.624   -3773.6377     688.6419   -3084.9958   -3123.2814 
 6370000    588.83089    47.021754    47.021754     45.02057    99542.523   -3782.5821    684.93519   -3097.6469   -3090.5256 
 6375000    586.51615    46.997644    46.997644    44.997486    99389.482   -3785.2084    682.24265   -3102.9657   -3190.8411 
 6380000    599.11885    47.025439    47.025439    45.024098    99565.926   -3777.9734    696.90226   -3081.0711   -3145.6105 
 6385000    594.67383    46.968986    46.968986    44.970048    99207.777   -3770.9996    691.73177   -3079.2678   -3119.6464 
 6390000    588.88858    47.078405    47.078405     45.07481    99902.737   -3780.1726    685.00229   -3095.1703   -3029.1053 
 6395000    592.04305    47.005305    47.005305    45.004821    99438.092    -3772.148    688.67161   -3083.4764   -3040.4209 
 6400000    595.44469     46.99369     46.99369    44.993701    99364.402   -3774.3145    692.62844   -3081.6861   -3074.3564 
 6405000    599.21964    47.069783    47.069783    45.066555    99847.856   -3777.9732     697.0195   -3080.9537   -3044.7627 
 6410000    590.99134    47.029721    47.029721    45.028198    99593.128   -3777.1598    687.44824   -3089.7116   -2993.4589 
 6415000    585.08806    46.884191    46.884191    44.888861    98671.435   -3778.3126    680.58148   -3097.7311   -3004.4766 
 6420000    593.48039    46.991854    46.991854    44.991943    99352.756   -3769.4739    690.34354   -3079.1304   -3080.2158 
 6425000    584.73144    47.010572    47.010572    45.009864    99471.522   -3767.9645    680.16665   -3087.7979   -3095.5311 
 6430000    586.20977    46.966458    46.966458    44.967627    99191.759   -3771.0965    681.88627   -3089.2103   -3085.7585 
 6435000    594.92597    47.050525    47.050525    45.048117    99725.355   -3760.2886    692.02505   -3068.2635   -3085.1796 
 6440000    598.51719    47.127143    47.127143    45.121474    100213.33   -3767.0146     696.2024   -3070.8122   -3207.2878 
 6445000    598.87228    46.994283    46.994283    44.994268    99368.159   -3769.6156    696.61545   -3073.0001   -3018.2025 
 6450000    585.50283     47.12851     47.12851    45.122782    100222.05   -3780.5207    681.06395   -3099.4568   -3126.0741 
 6455000    592.32923    46.990552    46.990552    44.990696    99344.492   -3785.9151     689.0045   -3096.9107   -3095.5338 
 6460000    593.42223    47.084834    47.084834    45.080966    99943.672   -3764.9326    690.27588   -3074.6567   -3042.0648 
 6465000    595.41763    47.104958    47.104958    45.100233    100071.87   -3782.3625    692.59695   -3089.7656   -3073.1939 
 6470000    600.06215    46.997128    46.997128    44.996992    99386.209   -3764.2228    697.99952   -3066.2233   -3180.8395 
 6475000    597.63176    47.009657    47.009657    45.008988    99465.716   -3765.8724    695.17246   -3070.6999    -3041.682 
 6480000    592.46638    47.107104    47.107104    45.102287    100085.55   -3771.3542    689.16403   -3082.1902   -3147.2384 
 6485000    597.01167    47.107176    47.107176    45.102357    100086.01    -3763.457    694.45116   -3069.0058   -3133.6347 
 6490000    601.29628    47.074753    47.074753    45.071313    99879.486   -3752.6917    699.43507   -3053.2566   -3011.5053 
 6495000    588.45707    47.077865    47.077865    45.074293      99899.3   -3758.5284    684.50035   -3074.0281   -3090.7647 
 6500000     595.4782     47.14304     47.14304    45.136694    100314.78   -3759.5306    692.66741   -3066.8631   -3030.5694 
 6505000    597.79457    47.034159    47.034159    45.032447    99621.323   -3760.9676    695.36184   -3065.6057   -2985.6182 
 6510000    600.33997    47.030398    47.030398    45.028846    99597.427   -3770.8602    698.32268   -3072.5375   -2989.1328 
 6515000    598.74051    46.943182    46.943182    44.945342    99044.359   -3779.3655    696.46218   -3082.9033   -3060.0093 
 6520000    598.90874    47.016067    47.016067    45.015125    99506.407   -3773.7862    696.65786   -3077.1283   -3019.5183 
 6525000    596.37057     47.03056     47.03056    45.029001    99598.459    -3767.072    693.70543   -3073.3666    -3099.404 
 6530000     600.5795    47.084534    47.084534    45.080678    99941.758   -3777.4432    698.60131   -3078.8419   -3144.1761 
 6535000    600.02348     47.04167     47.04167    45.039638    99669.059   -3770.7931    697.95454   -3072.8386    -3090.856 
 6540000     605.4335    47.127481    47.127481    45.121797    100215.49   -3762.9728    704.24754   -3058.7253    -3066.269 
 6545000    601.02428    46.989256    46.989256    44.989455    99336.276   -3772.3896    699.11868   -3073.2709   -3035.5718 
 6550000    606.96198    47.096768    47.096768    45.092392    100019.69   -3763.6506    706.02549   -3057.6251   -3086.0448 
 6555000    602.35108    47.103392    47.103392    45.098734    100061.89   -3757.2388    700.66203   -3056.5768   -3061.8574 
 6560000    599.31678    47.067928    47.067928    45.064779    99836.053   -3759.3488    697.13249   -3062.2163   -3143.6587 
 6565000    595.48472     47.12297     47.12297    45.117479    100186.72   -3768.5998      692.675   -3075.9248   -3162.6413 
 6570000    606.95615    46.997903    46.997903    44.997734    99391.126   -3763.8014    706.01871   -3057.7827   -3070.0698 
 6575000    593.11959    47.053471    47.053471    45.050937    99744.086   -3764.6241    689.92385   -3074.7002   -3054.2987 
 6580000    603.71288    47.005347    47.005347    45.004862    99438.362   -3770.3128    702.24609   -3068.0667   -3069.1073 
 6585000      602.319    47.116921    47.116921    45.111687    100148.14   -3761.4552    700.62472   -3060.8305   -3051.3862 
 6590000    599.99151    47.110621    47.110621    45.105655    100107.97   -3763.7928    697.91735   -3065.8754   -3058.9608 
 6595000    596.07428    47.072417    47.072417    45.069077    99864.624   -3752.7905    693.36079   -3059.4297   -3057.6631 
 6600000    599.73614    47.073414    47.073414    45.070032    99870.969   -3760.9748     697.6203   -3063.3545   -3003.9348 
 6605000     598.0864    46.997533    46.997533     44.99738    99388.776   -3761.3421     695.7013   -3065.6408   -2990.2648 
 6610000    604.72867    47.017937    47.017937    45.016916    99518.286   -3763.8451    703.42767   -3060.4174   -2992.3333 
 6615000    604.83975    47.113909    47.113909    45.108803    100128.93   -3754.3219    703.55688    -3050.765   -3065.3581 
 6620000    598.97331    47.027445    47.027445    45.026019    99578.668   -3756.7719    696.73297   -3060.0389   -3002.6765 
 6625000    605.08663    47.049338    47.049338     45.04698    99717.809   -3758.2482    703.84406   -3054.4041   -3043.1038 
 6630000    604.64623    47.118778    47.118778    45.113465    100159.98   -3764.9401    703.33178   -3061.6083   -3088.2548 
 6635000    606.14097    47.052838    47.052838    45.050331    99740.062   -3772.8257    705.07048   -3067.7552   -3051.5127 
 6640000    609.46789     47.00049     47.00049    45.000211     99407.54   -3772.7428    708.94039   -3063.8024     -3055.41 
 6645000    601.80178    47.090764    47.090764    45.086643    99981.436   -3753.3124    700.02308   -3053.2893   -3012.7549 
 6650000    605.10557    47.121757    47.121757    45.116317    100178.98   -3740.1823    703.86609   -3036.3162   -3022.6156 
 6655000    608.12558    47.124454    47.124454    45.118899    100196.18   -3747.4767    707.37899   -3040.0977   -3008.5123 
 6660000    602.52586     47.05604     47.05604    45.053397    99760.428   -3758.8345    700.86534   -3057.9692   -2968.0188 
 6665000    611.93277     47.14782     47.14782     45.14127    100345.29   -3759.9186    711.80757    -3048.111   -3108.7406 
 6670000    603.31058    47.040909    47.040909     45.03891    99664.224   -3760.5847    701.77813   -3058.8065   -3024.8042 
 6675000    598.36475    47.068826    47.068826    45.065639    99841.767   -3744.0561    696.02509    -3048.031   -3149.8435 
 6680000    611.02945     46.95351     46.95351    44.955231    99109.747   -3760.2768    710.75682     -3049.52    -3004.153 
 6685000    606.11366    47.018643    47.018643    45.017591    99522.766   -3766.9956    705.03872   -3061.9568   -3055.1315 
 6690000    601.07119    47.206614    47.206614    45.197562    100721.16   -3727.7883    699.17325   -3028.6151   -3002.5337 
 6695000    619.37025    47.140888    47.140888    45.134633    100301.04   -3742.2253    720.45894   -3021.7663   -3061.9441 
 6700000    606.59872    47.213488    47.213488    45.204144    100765.16   -3732.2745    705.60293   -3026.6715   -3075.4181 
 6705000    609.66506    47.095284    47.095284    45.090971    100010.23   -3750.2999    709.16974   -3041.1302    -3062.867 
 6710000    608.17215    47.048886    47.048886    45.046547     99714.93   -3750.2576    707.43317   -3042.8244   -3083.4006 
 6715000    612.23216    47.116549    47.116549    45.111331    100145.77    -3750.919    712.15582   -3038.7632   -2948.2149 
 6720000    605.15456    47.134284    47.134284    45.128311     100258.9   -3741.5556    703.92308   -3037.6325   -3079.6799 
 6725000     601.4839    47.128363    47.128363    45.122642    100221.12   -3755.0326    699.65332   -3055.3793   -3120.0163 
 6730000    606.33583    47.086895    47.086895    45.082939    99956.794   -3751.3029    705.29714   -3046.0057   -3011.6406 
 6735000    605.35825    47.121966    47.121966    45.116517    100180.31   -3742.7331    704.16001   -3038.5731   -3044.3446 
 6740000    612.60439    47.190324    47.190324    45.181966    100616.93   -3739.7007     712.5888   -3027.1119   -3036.0704 
 6745000    613.83974    47.053639    47.053639    45.051098    99745.157   -3744.0722    714.02578   -3030.0464   -3042.4187 
 6750000     609.1502    47.154732    47.154732    45.147889    100389.44   -3756.8505    708.57085   -3048.2796   -3085.9623 
 6755000    607.33343    47.102478    47.102478    45.097859    100056.07   -3756.1262    706.45756   -3049.6686   -3110.0063 
 6760000    604.45356    47.097559    47.097559    45.093148    100024.72   -3740.2914    703.10766   -3037.1837   -3029.1036 
 6765000    605.06678     47.13523     47.13523    45.129216    100264.93   -3741.3017    703.82097   -3037.4808   -2949.7645 
 6770000    607.32142    47.020879    47.020879    45.019732    99536.965   -3745.3313     706.4436   -3038.8877   -2992.7644 
 6775000    617.82473    47.087603    47.087603    45.083617    99961.306   -3727.8099    718.66117   -3009.1487   -2876.6739 
 6780000    620.61931    47.119226    47.119226    45.113894    100162.84   -3731.7776    721.91186   -3009.8657   -2926.9171 
 6785000    612.83371    47.169991    47.169991    45.162498    100486.92   -3741.8581    712.85555   -3029.0026   -3108.0751 
 6790000    612.59662    47.141813    47.141813    45.135519    100306.94   -3739.7292    712.57976   -3027.1495   -2951.5668 
 6795000    616.78604    47.145722    47.145722    45.139262     100331.9   -3745.9996    717.45295   -3028.5466   -3048.8809 
 6800000    612.25169    47.059292    47.059292    45.056511    99781.111   -3738.7929    712.17854   -3026.6144   -3004.2502 
 6805000     604.3068    47.219152    47.219152    45.209567    100801.43   -3721.3186    702.93695   -3018.3816   -2985.2339 
 6810000    622.84322    47.120151    47.120151     45.11478    100168.74   -3753.4242    724.49873   -3028.9255   -2977.2176 
 6815000    604.35447    47.074033    47.074033    45.070624    99874.904   -3751.5794     702.9924    -3048.587   -3085.1088 
 6820000    612.32781    47.102661    47.102661    45.098034    100057.23   -3735.7755    712.26708   -3023.5084   -3010.1043 
 6825000     604.7633    47.054847    47.054847    45.052255    99752.841   -3731.3709    703.46796    -3027.903   -2946.0199 
 6830000    613.65793    47.194096    47.194096    45.185577    100641.05   -3732.5543     713.8143     -3018.74   -2997.4859 
 6835000    613.74982    47.123016    47.123016    45.117522       100187   -3729.7174    713.92118   -3015.7962   -2946.0942 
 6840000    623.62695    47.071327    47.071327    45.068033    99857.682   -3744.2712    725.41038   -3018.8608    -3068.894 
 6845000    610.38166    47.170765    47.170765    45.163239    100491.87   -3720.8025     710.0033   -3010.7992   -2971.9197 
 6850000    621.05995    47.133399    47.133399    45.127463    100253.24   -3739.4258    722.42441   -3017.0014   -2888.4358 
 6855000    617.56008    47.142185    47.142185    45.135875    100309.32   -3731.9457    718.35333   -3013.5924   -3019.7033 
 6860000    615.42058    47.115929    47.115929    45.110737    100141.81   -3717.9202    715.86463   -3002.0556     -3047.54 
 6865000    610.62168    47.154656    47.154656    45.147816    100388.95   -3733.9612    710.28249   -3023.6787   -3047.3963 
 6870000    612.72352    47.073081    47.073081    45.069713    99868.848   -3743.2784    712.72737    -3030.551   -2930.2284 
 6875000    622.09445    47.142711    47.142711    45.136379    100312.68   -3733.2568    723.62776    -3009.629   -3087.5708 
 6880000    613.06412    47.052683    47.052683    45.050183    99739.076   -3732.9463    713.12357   -3019.8228   -3044.5227 
 6885000    614.39027    47.104946    47.104946    45.100222     100071.8   -3736.0497    714.66616   -3021.3835   -3100.0431 
 6890000    613.76529    47.102092    47.102092    45.097489    100053.61    -3732.187    713.93918   -3018.2478   -3046.8263 
 6895000    611.94907    47.208305    47.208305    45.199182    100731.98   -3723.4164    711.82653   -3011.5899   -2984.6688 
 6900000    618.18306     47.16613     47.16613    45.158802    100462.25   -3737.5982    719.07798   -3018.5202   -3045.3316 
 6905000    613.25991    47.124269    47.124269    45.118722       100195   -3728.0418    713.35131   -3014.6904   -2971.3688 
 6910000    620.09615    47.109122    47.109122     45.10422    100098.41   -3724.0801    721.30331   -3002.7768   -2981.8831 
 6915000    606.12386    47.167175    47.167175    45.159802    100468.93   -3733.1544    705.05058   -3028.1038   -3030.2622 
 6920000    611.90274    47.239512    47.239512    45.229061    100931.88   -3724.0004    711.77263   -3012.2278    -2997.816 
 6925000    619.16914    47.165255    47.165255    45.157964    100456.66   -3723.3467      720.225   -3003.1217   -3007.5974 
 6930000     619.9888    47.269935    47.269935    45.258188    101127.01   -3723.8142    721.17844   -3002.6357   -3021.9238 
 6935000     622.1058    47.107069    47.107069    45.102255    100085.33   -3724.8337    723.64096   -3001.1927   -2939.7873 
 6940000    618.74269    47.153463    47.153463    45.146674    100381.33    -3730.869    719.72895     -3011.14   -2949.5817 
 6945000    623.74586      47.1123      47.1123    45.107263    100118.67   -3727.9485     725.5487   -3002.3998   -2909.5278 
 6950000    618.58291    47.298563    47.298563    45.285599    101310.86    -3720.365    719.54309   -3000.8219   -3040.3273 
 6955000     620.2094     47.17419     47.17419    45.166518    100513.76     -3733.91    721.43504    -3012.475   -3087.7026 
 6960000     609.7016    47.067976    47.067976    45.064825    99836.361   -3738.8711    709.21225   -3029.6589   -2950.6478 
 6965000    619.72911    47.119622    47.119622    45.114273    100165.36   -3714.2418    720.87636   -2993.3654   -2977.5072 
 6970000    624.91242    47.180461    47.180461    45.172523    100553.85   -3719.8326    726.90566   -2992.9269    -3072.178 
 6975000    617.54902    47.125337    47.125337    45.119744    100201.81   -3741.8876    718.34046   -3023.5471   -3107.6213 
 6980000    628.65304    47.114596    47.114596     45.10946    100133.31   -3721.6671    731.25679   -2990.4103   -2960.1777 
 6985000    621.48787    47.184399    47.184399    45.176293    100579.03   -3724.6278    722.92218   -3001.7056   -3002.0127 
 6990000    618.51934    47.154765    47.154765     45.14792    100389.64   -3722.5504    719.46914   -3003.0813   -3038.2825 
 6995000    622.07437    47.218226    47.218226     45.20868     100795.5   -3719.2308     723.6044   -2995.6265   -3029.5254 
 7000000    620.85798    47.191314    47.191314    45.182914    100623.26   -3728.2932    722.18948   -3006.1038   -3043.4663 
 7005000    621.44481    47.325719    47.325719    45.311599    101485.46   -3721.2592    722.87209   -2998.3871   -3038.5638 
 7010000    629.03502    47.206282    47.206282    45.197245    100719.03   -3709.6278    731.70112   -2977.9267   -2996.7935 
 7015000    616.66086    47.123041    47.123041    45.117547    100187.17   -3728.3352    717.30734   -3011.0279   -2971.5104 
 7020000      627.474    47.167257    47.167257    45.159881    100469.45   -3716.3033    729.88532    -2986.418   -3044.0291 
 7025000    618.88326    47.134658    47.134658    45.128669    100261.28   -3724.1381    719.89247   -3004.2456   -3003.7846 
 7030000    621.36966    47.097126    47.097126    45.092734    100021.96    -3727.376    722.78467   -3004.5914   -2967.5664 
 7035000    622.83027     47.18193     47.18193    45.173929    100563.24   -3724.4496    724.48368   -2999.9659   -3004.9978 
 7040000    631.15043    47.239878    47.239878    45.229411    100934.23   -3725.9633    734.16178   -2991.8015   -3082.6289 
 7045000    624.03615    47.098062    47.098062     45.09363    100027.93   -3734.0592    725.88637   -3008.1729   -2885.3503 
 7050000    626.10982    47.189752    47.189752    45.181418    100613.26    -3712.418    728.29848   -2984.1196   -2939.4704 
 7055000    622.25759    47.200874    47.200874    45.192067    100684.42   -3716.2902    723.81752   -2992.4727   -3004.8624 
 7060000    627.25649    47.232002    47.232002     45.22187    100883.75   -3720.3253    729.63231    -2990.693   -2963.8334 
 7065000    625.55379    47.207261    47.207261    45.198182     100725.3   -3710.1416     727.6517   -2982.4899   -2930.1187 
 7070000    621.13548    47.176156    47.176156    45.168401    100526.33   -3723.5185    722.51227   -3001.0062   -2995.8834 
 7075000    622.11657    47.261031    47.261031    45.249664    101069.88   -3707.8249    723.65349   -2984.1714   -2999.5714 
 7080000      636.955     47.12375     47.12375    45.118225    100191.69   -3708.9202    740.91372   -2968.0065    -2971.912 
 7085000    627.53534    47.187858    47.187858    45.179605    100601.15   -3701.9128    729.95667   -2971.9561   -2995.0635 
 7090000    638.25102    47.266206    47.266206    45.254618    101103.08   -3702.1027    742.42128   -2959.6814   -3006.6922 
 7095000    621.92166    47.198481    47.198481    45.189776    100669.11   -3709.1447    723.42676   -2985.7179   -2897.1987 
 7100000     629.4933    47.192314    47.192314    45.183871    100629.65   -3722.9097    732.23419   -2990.6755    -3014.779 
 7105000    623.23915    47.164156    47.164156    45.156911    100449.64   -3725.7782    724.95928    -3000.819   -3063.7388 
 7110000    626.91148    47.225874    47.225874    45.216003    100844.49   -3714.9803    729.23098   -2985.7493   -2920.4332 
 7115000    634.30021     47.21013     47.21013    45.200929    100743.67   -3724.9448    737.82565   -2987.1191   -2931.8209 
 7120000    630.93576    47.159664    47.159664    45.152611    100420.94   -3707.3265    733.91207   -2973.4145   -2981.8286 
 7125000    625.08829    47.132767    47.132767    45.126858    100249.21   -3720.9068    727.11023   -2993.7965   -2971.4127 
 7130000     629.1257    47.179536    47.179536    45.171637    100547.94   -3700.6379    731.80659   -2968.8313   -2992.3003 
 7135000    628.80634    47.273366    47.273366    45.261474    101149.04   -3704.6544    731.43511   -2973.2193   -2927.1045 
 7140000    639.95103    47.311835    47.311835    45.298306    101396.17   -3698.7711    744.39875   -2954.3723   -3124.0769 
 7145000    622.99632    47.254173    47.254173    45.243098    101025.89   -3699.1064    724.67682   -2974.4296   -3060.8503 
 7150000    622.50959    47.145798    47.145798    45.139335    100332.39   -3711.1893    724.11065   -2987.0786   -2980.2992 
 7155000    624.20661    47.229174    47.229174    45.219162    100865.63   -3698.6435    726.08464   -2972.5589   -3059.5981 
 7160000    635.98541    47.250949    47.250949    45.240011    101005.21   -3708.3971     739.7859   -2968.6112   -2933.9809 
 7165000    633.37436    47.215005    47.215005    45.205596    100774.88   -3701.2994    736.74869   -2964.5507   -2954.7458 
 7170000    633.69864    47.113571    47.113571    45.108479    100126.78   -3701.5088    737.12589   -2964.3829   -3011.7095 
 7175000    623.07179    47.198165    47.198165    45.189473    100667.09   -3704.0153    724.76461   -2979.2507   -3073.7017 
 7180000    631.47464    47.208934    47.208934    45.199784    100736.01   -3691.2932     734.5389   -2956.7543   -2888.5616 
 7185000    630.70289    47.232386    47.232386    45.222238    100886.21   -3724.8294    733.64119   -2991.1882   -2950.1391 
 7190000    641.62652    47.281265    47.281265    45.269037    101199.75   -3706.7252     746.3477   -2960.3775   -2958.1972 
 7195000    629.12136    47.226541    47.226541    45.216642    100848.77   -3708.5302    731.80155   -2976.7286   -2967.9703 
 7200000    631.72585    47.214981    47.214981    45.205573    100774.72   -3703.4785    734.83112   -2968.6474   -2957.5214 
 7205000    641.01711    47.263367    47.263367    45.251901    101084.87   -3697.8708    745.63882    -2952.232   -3012.1384 
 7210000    629.26321    47.249749    47.249749    45.238862    100997.51     -3713.91    731.96654   -2981.9435   -2926.9346 
 7215000    642.47928    47.236026    47.236026    45.225723    100909.54   -3694.7606    747.33963    -2947.421   -2917.6254 
 7220000    632.59305    47.195851    47.195851    45.187258    100652.28   -3709.6658    735.83986   -2973.8259   -2870.3579 
 7225000    631.61428    47.272119    47.272119     45.26028    101141.03   -3700.7622    734.70133   -2966.0609     -2947.87 
 7230000    632.88792    47.272668    47.272668    45.260806    101144.56   -3694.4594    736.18285   -2958.2765   -2937.3393 
 7235000    628.94188    47.165249    47.165249    45.157958    100456.62   -3710.1398    731.59276    -2978.547   -3003.1367 
 7240000    651.79873    47.239263    47.239263    45.228822    100930.29   -3694.4989    758.18013   -2936.3188   -2851.6092 
 7245000    632.90187     47.20752     47.20752     45.19843    100726.96   -3698.9809    736.19908   -2962.7819   -2960.2102 
 7250000    635.03585    47.260648    47.260648    45.249297    101067.42   -3693.8926    738.68135   -2955.2113   -2963.8764 
 7255000    638.14174    47.214194    47.214194     45.20482    100769.68    -3693.309    742.29415   -2951.0148   -2929.8195 
 7260000    631.26928    47.299975    47.299975     45.28695    101319.93   -3685.1359    734.30003   -2950.8358   -2917.2915 
 7265000    650.37533    47.228042    47.228042    45.218079    100858.38   -3694.1533    756.52442   -2937.6289   -2974.7531 
 7270000    635.51404    47.169242    47.169242    45.161781    100482.14    -3698.108    739.23758   -2958.8705   -2910.8112 
 7275000    636.38414    47.249344    47.249344    45.238474    100994.92   -3699.8593    740.24969   -2959.6096   -2962.1695 
 7280000    640.11215    47.222516    47.222516    45.212787    100822.98   -3693.1637    744.58617   -2948.5776   -2885.5167 
 7285000    636.92758    47.211223    47.211223    45.201975    100750.66   -3687.6395    740.88184   -2946.7577    -2874.904 
 7290000    631.42268    47.310934    47.310934    45.297443    101390.38   -3690.2848    734.47847   -2955.8063   -2919.9927 
 7295000    638.17195    47.249196    47.249196    45.238332    100993.97   -3686.5566     742.3293   -2944.2273    -2869.458 
 7300000    641.92795    47.375391    47.375391    45.359157    101805.35   -3692.3528    746.69832   -2945.6544   -2872.3168 
 7305000    645.31499    47.236052    47.236052    45.225748     100909.7   -3700.4575    750.63817   -2949.8193   -2913.0573 
 7310000    641.73212    47.251812    47.251812    45.240837    101010.74   -3689.5977    746.47053   -2943.1272   -2948.5943 
 7315000    630.14134    47.273879    47.273879    45.261965    101152.33   -3690.3959      732.988   -2957.4079   -3008.7081 
 7320000    645.38772    47.242176    47.242176    45.231611    100948.96   -3694.6929    750.72277   -2943.9702   -2915.5571 
 7325000    633.15144    47.333785    47.333785    45.319321    101537.36   -3685.9859    736.48938   -2949.4965    -2927.913 
 7330000    635.62205    47.240412    47.240412    45.229922    100937.65   -3699.9114    739.36322   -2960.5482   -2964.3402 
 7335000    642.88996    47.203993    47.203993    45.195053    100704.38   -3699.1662    747.81734   -2951.3489   -3053.3129 
 7340000    644.09047    47.201278    47.201278    45.192454    100687.01    -3684.993    749.21379   -2935.7792   -2934.6525 
 7345000    645.46837     47.33337     47.33337    45.318924    101534.69   -3697.5974    750.81658   -2946.7808   -2981.4166 
 7350000    644.88372    47.308488    47.308488    45.295101    101374.65   -3687.9525    750.13651    -2937.816   -2911.0992 
 7355000     645.4701    47.243642    47.243642    45.233015    100958.36   -3699.5402     750.8186   -2948.7216   -2963.5892 
 7360000    647.45919    47.308732    47.308732    45.295334    101376.22   -3688.0732    753.13232   -2934.9409   -3030.8466 
 7365000    638.68102    47.206119    47.206119    45.197089    100717.99   -3695.9072    742.92145   -2952.9857     -2883.97 
 7370000    637.71826    47.206547    47.206547    45.197498    100720.73   -3686.0047    741.80156   -2944.2032   -2929.2798 
 7375000     638.3762    47.267166    47.267166    45.255537    101109.24   -3690.6857    742.56689   -2948.1188   -2927.4558 
 7380000    646.23791    47.389697    47.389697    45.372854     101897.6   -3696.7322    751.71172   -2945.0205   -2974.9277 
 7385000    650.14978    47.289583    47.289583    45.277001    101253.17   -3692.6788    756.26206   -2936.4167   -2870.9417 
 7390000     640.5819    47.256098    47.256098     45.24494    101038.23   -3677.3305    745.13258   -2932.1979   -2965.7799 
 7395000    645.02495    47.258902    47.258902    45.247626    101056.22   -3685.0879     750.3008   -2934.7871   -2885.7282 
 7400000    643.54486    47.273222    47.273222    45.261336    101148.11   -3670.3714    748.57913   -2921.7923    -2973.921 
 7405000    651.67968    47.352011    47.352011    45.336772     101654.7    -3680.782    758.04166   -2922.7403     -2877.41 
 7410000    643.26644    47.335004    47.335004    45.320489    101545.21   -3682.6041    748.25527   -2934.3489   -2986.2922 
 7415000    643.07032    47.269939    47.269939    45.258192    101127.04   -3706.7045    748.02714   -2958.6774   -2818.3527 
 7420000    652.56533    47.304289    47.304289    45.291081    101347.66   -3674.3937    759.07185   -2915.3219   -2827.2822 
 7425000    641.96792    47.400648    47.400648    45.383338    101968.26   -3670.9536    746.74482   -2924.2088   -2927.7705 
 7430000    648.87016    47.286521    47.286521    45.274069     101233.5   -3670.2915    754.77358   -2915.5179   -2971.1076 
 7435000    640.29799    47.389192    47.389192     45.37237    101894.34    -3662.048    744.80233   -2917.2456   -2988.0217 
 7440000    655.26232    47.328535    47.328535    45.314295    101503.58   -3668.9885    762.20903   -2906.7794   -2815.2016 
 7445000    649.20015    47.281995    47.281995    45.269735    101204.43   -3682.2927    755.15744   -2927.1353   -2994.0911 
 7450000    640.87367    47.259625    47.259625    45.248317    101060.86   -3680.7406    745.47197   -2935.2687   -2903.8395 
 7455000    652.28899    47.343058    47.343058    45.328199    101597.04   -3692.1833    758.75041   -2933.4329   -2930.3132 
 7460000    647.31994    47.254989    47.254989    45.243878    101031.12   -3673.5512    752.97035   -2920.5808   -2873.7928 
 7465000    636.46553    47.410507    47.410507    45.392778     102031.9   -3672.3644    740.34437   -2932.0201   -3052.4331 
 7470000     646.2405    47.407805    47.407805    45.390191    102014.46   -3682.9758    751.71473    -2931.261   -2879.4609 
 7475000    644.69973    47.321315    47.321315    45.307382    101457.13   -3676.4938    749.92249   -2926.5714   -3003.2721 
 7480000    631.80626    47.327919    47.327919    45.313705    101499.61   -3676.7972    734.92466   -2941.8725   -2931.7459 
 7485000     647.0116    47.363407    47.363407    45.347683    101728.11     -3671.69    752.61168   -2919.0783    -3009.685 
 7490000    641.67727     47.36268     47.36268    45.346987    101723.43   -3681.1031    746.40673   -2934.6964   -2881.6607 
 7495000    639.58692    47.318187    47.318187    45.304387    101437.01   -3687.5405    743.97521   -2943.5653   -2963.8526 
 7500000     657.1649    47.274744    47.274744    45.262793    101157.88    -3666.195    764.42213   -2901.7729   -2808.5462 
 7505000    653.28326     47.32607     47.32607    45.311935    101487.72   -3674.8826    759.90696   -2914.9756   -2837.8137 
 7510000    649.33348    47.382542    47.382542    45.366004    101851.46   -3673.0681    755.31252   -2917.7556    -2927.748 
 7515000    646.49526    47.346447    47.346447    45.331445    101618.87   -3679.3217    752.01107   -2927.3106   -2983.8285 
 7520000    648.83497    47.402198    47.402198    45.384823    101978.26   -3663.6958    754.73265   -2908.9631   -2965.6124 
 7525000    650.91495    47.361601    47.361601    45.345953    101716.47   -3663.0397    757.15211   -2905.8876   -2857.3328 
 7530000    651.77751    47.309253    47.309253    45.295834    101379.57    -3665.051    758.15545   -2906.8955   -2938.4798 
 7535000    657.94323    47.303312    47.303312    45.290146    101341.38   -3671.9759    765.32749   -2906.6484   -2824.9821 
 7540000    645.54339    47.343273    47.343273    45.328406    101598.43   -3672.0309    750.90385   -2921.1271   -2995.9268 
 7545000    646.48097    47.223983    47.223983    45.214192    100832.37   -3678.6377    751.99445   -2926.6433   -2923.7881 
 7550000    647.32097    47.385828    47.385828     45.36915    101872.65   -3685.5095    752.97155    -2932.538   -3023.4446 
 7555000     649.2081    47.381935    47.381935    45.365422    101847.54   -3661.1451    755.16668   -2905.9784   -2961.3797 
 7560000    650.36277    47.447006    47.447006    45.427724    102267.73   -3656.6984    756.50981   -2900.1886   -2805.8372 
 7565000    657.36176    47.446176    47.446176    45.426929    102262.36   -3672.8741    764.65112    -2908.223   -2963.3371 
 7570000    647.82056    47.479611    47.479611    45.458941     102478.7   -3642.4723    753.55267   -2888.9196   -2936.8202 
 7575000    650.42849    47.335882    47.335882    45.321329    101550.85   -3677.7642    756.58626   -2921.1779   -2975.4247 
 7580000     650.6288    47.197205    47.197205    45.188554    100660.95   -3675.5788    756.81926   -2918.7595   -2938.3186 
 7585000    652.55015    47.287362    47.287362    45.274874     101238.9    -3674.651     759.0542   -2915.5968   -2970.6357 
 7590000    655.80653     47.43985     47.43985    45.420873    102221.46   -3662.6107    762.84206   -2899.7686   -2927.1506 
 7595000    647.97359    47.317712    47.317712    45.303933    101433.96   -3662.5853    753.73068   -2908.8546   -2848.1429 
 7600000    650.20708    47.498906    47.498906    45.477415    102603.69   -3651.5269    756.32871   -2895.1982   -2971.8958 
 7605000    656.90719     47.46269     47.46269    45.442741    102369.18   -3665.0309    764.12236   -2900.9086   -3004.0866 
 7610000    653.98632    47.480883    47.480883    45.460159    102486.94   -3661.2393    760.72477   -2900.5145   -2982.4858 
 7615000    654.75039    47.341335    47.341335     45.32655    101585.96   -3669.5191    761.61354   -2907.9055   -2935.3013 
 7620000    653.12698    47.383341    47.383341    45.366768    101856.61   -3669.6936    759.72517   -2909.9684   -3022.5046 
 7625000    654.78607    47.442178    47.442178    45.423101    102236.51   -3656.9303    761.65505   -2895.2752   -2940.8853 
 7630000    655.28279    47.415583    47.415583    45.397638    102064.67   -3654.4209    762.23284   -2892.1881   -2879.0018 
 7635000    660.51476    47.309795    47.309795    45.296353    101383.06   -3675.3686    768.31872   -2907.0499   -2933.7426 
 7640000    642.33284    47.385982    47.385982    45.369297    101873.64     -3670.84     747.1693   -2923.6707   -2994.0083 
 7645000    653.99409     47.34717     47.34717    45.332137    101623.52   -3661.4205     760.7338   -2900.6867   -2810.6716 
 7650000    665.65153    47.370716    47.370716    45.354681    101775.21   -3653.2679    774.29387    -2878.974   -2855.5921 
 7655000    651.92522    47.392656    47.392656    45.375687    101916.69   -3662.6348    758.32727   -2904.3075   -2965.4582 
 7660000    655.02616    47.405667    47.405667    45.388145    102000.66    -3665.464    761.93431   -2903.5297   -2930.7381 
 7665000     655.5556    47.361649    47.361649    45.345999    101716.78   -3656.8059    762.55017   -2894.2557   -2902.1449 
 7670000      650.126    47.276231    47.276231    45.264217    101167.43   -3670.0203    756.23439   -2913.7859   -2843.3508 
 7675000    656.22696    47.377844    47.377844    45.361505    101821.16   -3654.3241     763.3311    -2890.993   -2876.0465 
 7680000    659.51372    47.412731    47.412731    45.394907    102046.26   -3653.5571     767.1543   -2886.4028   -2853.4144 
 7685000    654.33749    47.291669    47.291669    45.278998    101266.57   -3665.8407    761.13325   -2904.7074   -2890.9897 
 7690000    657.02401    47.467777    47.467777    45.447611     102402.1    -3658.858    764.25824   -2894.5997    -2928.217 
 7695000    671.71332    47.354056    47.354056     45.33873    101667.87   -3655.4018    781.34502   -2874.0568   -2770.2366 
 7700000    650.83074    47.488913    47.488913    45.467847    102538.95   -3631.3788    757.05416   -2874.3246     -2815.74 
 7705000    662.60053     47.44456     47.44456    45.425382    102251.91   -3656.5113    770.74492   -2885.7664   -2874.8243 
 7710000    651.79872    47.512107    47.512107    45.490054    102689.26   -3649.7781    758.18012    -2891.598   -2900.6914 
 7715000    663.23226     47.39414     47.39414    45.377107    101926.26   -3663.1222    771.47975   -2891.6424   -2877.7691 
 7720000    656.75964    47.492813    47.492813    45.471581    102564.21   -3652.4523    763.95073   -2888.5016   -2923.3251 
 7725000     659.1295    47.418657    47.418657    45.400581    102084.53   -3648.6797    766.70737   -2881.9723   -2837.5289 
 7730000    665.56735    47.489619    47.489619    45.468523    102543.52   -3654.9171    774.19596   -2880.7211   -2870.2928 
 7735000     655.0622    47.444691    47.444691    45.425508    102252.76   -3649.2355    761.97624   -2887.2592   -2964.3797 
 7740000    659.56662    47.429837    47.429837    45.411285    102156.75   -3661.6202    767.21583   -2894.4044    -2952.335 
 7745000    649.13079    47.364234    47.364234    45.348475    101733.44   -3667.8236    755.07675   -2912.7469   -2903.6165 
 7750000    648.40731    47.433976    47.433976    45.415249     102183.5   -3650.7327     754.2352   -2896.4975   -2906.5318 
 7755000    666.83477    47.318673    47.318673    45.304852    101440.14   -3655.2222    775.67024   -2879.5519   -2837.3343 
 7760000    661.86178    47.483564    47.483564    45.462726     102504.3   -3640.0166     769.8856    -2870.131   -2812.5578 
 7765000    661.33233    47.376531    47.376531    45.360248     101812.7    -3646.614    769.26974   -2877.3443   -2791.7685 
 7770000    665.97625    47.341231    47.341231     45.32645    101585.28   -3656.7512     774.6716   -2882.0796   -2886.6213 
 7775000    661.83338      47.2982      47.2982     45.28525    101308.52   -3658.3544    769.85256   -2888.5019   -2901.7858 
 7780000    660.81379    47.363727    47.363727    45.347989    101730.17   -3627.3036    768.66656   -2858.6371   -2969.8384 
 7785000      658.919    47.368548    47.368548    45.352605    101761.24   -3653.4727    766.46251   -2887.0102   -2968.5915 
 7790000    665.58634    47.309422    47.309422    45.295995    101380.65   -3644.2429    774.21804   -2870.0248   -2925.9428 
 7795000    660.27512    47.315851    47.315851    45.302151    101421.99   -3646.6724    768.03998   -2878.6324   -2872.3669 
 7800000    662.98969     47.46983     47.46983    45.449577    102415.38   -3647.7608     771.1976   -2876.5632   -2818.6864 
 7805000    665.57454    47.397564    47.397564    45.380386    101948.36    -3649.298    774.20432   -2875.0937   -2822.1691 
 7810000    666.68567     47.48296     47.48296    45.462148    102500.39   -3638.9068     775.4968     -2863.41   -2880.5342 
 7815000    660.13046    47.418338    47.418338    45.400276    102082.46   -3642.9122    767.87171   -2875.0404   -2796.7045 
 7820000    655.90734    47.430693    47.430693    45.412105    102162.28   -3639.7632    762.95932   -2876.8039   -2875.5445 
 7825000    661.20223     47.51447     47.51447    45.492317    102704.59   -3637.0661     769.1184   -2867.9477   -2893.7064 
 7830000    665.72103    47.415819    47.415819    45.397864    102066.19   -3662.4373    774.37472   -2888.0625    -2930.057 
 7835000    660.50589    47.351877    47.351877    45.336644    101653.84   -3642.7849    768.30841   -2874.4765   -2959.4205 
 7840000    672.06473    47.515804    47.515804    45.493594    102713.23   -3636.5147    781.75379   -2854.7609   -2898.5162 
 7845000     670.2851    47.339623    47.339623    45.324911    101574.93   -3637.2193     779.6837   -2857.5356   -2841.3855 
 7850000    661.85132    47.343229    47.343229    45.328364    101598.15   -3641.0875    769.87342   -2871.2141   -2870.6325 
 7855000    663.44209      47.4765      47.4765    45.455963    102458.56    -3648.804    771.72383   -2877.0801   -2869.3864 
 7860000    665.31559    47.389678    47.389678    45.372835    101897.48   -3661.2331    773.90311     -2887.33   -2893.8932 
 7865000    663.74767    47.438051    47.438051     45.41915    102209.83   -3646.9617    772.07929   -2874.8824   -2866.3938 
 7870000    659.96647    47.440263    47.440263    45.421267    102224.13   -3641.4321    767.68095   -2873.7511   -2849.1103 
 7875000    665.92419     47.54966     47.54966    45.526009    102932.95   -3618.5483    774.61104   -2843.9373   -2889.2072 
 7880000    658.75008    47.395607    47.395607    45.378512    101935.73   -3648.6383    766.26602   -2882.3723   -2879.6752 
 7885000    672.93599    47.457993    47.457993    45.438243    102338.79   -3643.1999    782.76724   -2860.4326    -2820.489 
 7890000    665.07413    47.474911    47.474911    45.454441    102448.27   -3646.3295    773.62224   -2872.7073    -2919.912 
 7895000    667.76571    47.469987    47.469987    45.449726     102416.4   -3653.5239    776.75312   -2876.7708   -2826.5241 
 7900000    673.32935    47.471889    47.471889    45.451548    102428.71   -3632.4311    783.22482   -2849.2063   -2912.5953 
 7905000    666.79602    47.342936    47.342936    45.328083    101596.26   -3648.3296    775.62516   -2872.7044   -2840.2476 
 7910000    666.28014    47.392566    47.392566    45.375601    101916.11   -3632.3368    775.02508   -2857.3117   -2842.4979 
 7915000    679.06694    47.449379    47.449379    45.429996    102283.07   -3649.8519    789.89885   -2859.9531   -2868.1826 
 7920000    662.61683    47.470069    47.470069    45.449805    102416.93   -3639.9938    770.76388     -2869.23   -2819.3559 
 7925000    673.01489    47.538079    47.538079    45.514921    102857.76   -3634.4595    782.85902   -2851.6004   -2795.1661 
 7930000    670.99606    47.460684    47.460684     45.44082     102356.2   -3628.6006     780.5107   -2848.0899   -2843.5054 
 7935000    669.08092    47.526916    47.526916    45.504233    102785.32   -3632.2903    778.28299   -2854.0073   -2828.3185 
 7940000    661.04847    47.535918    47.535918    45.512852    102843.73   -3627.8656    768.93954   -2858.9261   -2946.1323 
 7945000    671.74681    47.299131    47.299131    45.286142    101314.51   -3652.2095    781.38398   -2870.8256   -2877.4284 
 7950000    664.06886     47.38865     47.38865    45.371851    101890.85    -3632.196     772.4529   -2859.7431   -2793.7885 
 7955000    669.39905    47.538742    47.538742    45.515556    102862.06   -3629.7684    778.65304   -2851.1153   -2953.2168 
 7960000    672.20783    47.449591    47.449591    45.430198    102284.44   -3643.3754    781.92024   -2861.4552    -2922.281 
 7965000    664.56208    47.395304    47.395304    45.378223    101933.78   -3642.0858    773.02662   -2869.0591   -2814.0152 
 7970000     668.3405    47.368986    47.368986    45.353024    101764.06   -3640.7392    777.42172   -2863.3175   -2872.1714 
 7975000    671.92785    47.466568    47.466568    45.446453    102394.27   -3635.6894    781.59457   -2854.0949   -2841.9236 
 7980000    673.04851    47.510638    47.510638    45.488648    102679.74   -3631.3879    782.89813   -2848.4898   -2875.2065 
 7985000    668.21027    47.498004    47.498004    45.476551    102597.84   -3636.1185    777.27023   -2858.8482    -2876.139 
 7990000    670.52593    47.582943    47.582943    45.557875    103149.25   -3625.0086    779.96384   -2845.0448   -2833.0432 
 7995000    673.22814     47.60823     47.60823    45.582087    103313.79   -3635.4887    783.10709   -2852.3816   -2796.7129 
 8000000    669.38557    47.416487    47.416487    45.398504    102070.51   -3628.0748    778.63736   -2849.4374   -2812.1222 
Loop time of 210682 on 48 procs for 6000000 steps with 9000 atoms

Performance: 2.461 ns/day, 9.754 hours/ns, 28.479 timesteps/s
99.9% CPU use with 48 MPI tasks x 1 OpenMP threads

MPI task timing breakdown:
Section |  min time  |  avg time  |  max time  |%varavg| %total
---------------------------------------------------------------
Pair    | 1.2391e+05 | 1.3568e+05 | 1.4558e+05 |1540.5 | 64.40
Bond    | 210.79     | 220.24     | 238.46     |  36.3 |  0.10
Kspace  | 39102      | 48955      | 60771      |2559.4 | 23.24
Neigh   | 18434      | 18503      | 18594      |  32.3 |  8.78
Comm    | 6122.8     | 6402.6     | 6637.3     | 164.5 |  3.04
Output  | 23.029     | 23.18      | 23.5       |   3.0 |  0.01
Modify  | 369.43     | 504.33     | 622.97     | 309.0 |  0.24
Other   |            | 397.4      |            |       |  0.19

Nlocal:    187.5 ave 207 max 174 min
Histogram: 5 3 6 8 11 7 5 2 0 1
Nghost:    22423.8 ave 22593 max 22324 min
Histogram: 5 6 7 10 9 4 4 0 2 1
Neighs:    560663 ave 621358 max 506596 min
Histogram: 3 3 7 8 3 8 7 7 1 1

Total # of neighbors = 26911825
Ave neighs/atom = 2990.2
Ave special neighs/atom = 2.4
Neighbor list builds = 1233580
Dangerous builds = 0
Total wall time: 58:31:27
